
Lmod is automatically replacing "gcc/12.3" with "intel/2023.2.1".


Due to MODULEPATH changes, the following have been reloaded:
  1) aocl-blas/5.1     2) aocl-lapack/5.1     3) flexiblas/3.3.1     4) openmpi/4.1.5

LAMMPS (22 Jul 2025 - Development - patch_22Jul2025-72-g8b7fdf9ad3)
KOKKOS mode with Kokkos version 4.6.2 is enabled
  will use up to 1 GPU(s) per node
  using 1 OpenMP thread(s) per MPI task
Reading data file ...
  orthogonal box = (0 0 0) to (162 162 150)
  1 by 1 by 1 MPI processor grid
  reading atoms ...
  130899 atoms
  read_data CPU = 0.556 seconds
128000 atoms in group substrate_group
2899 atoms in group particle_group
Reading eam/alloy potential file /home/wuwen123/comp/yao/lammps/potentials/AlCu.eam.alloy with DATE: 2008-10-01
Changing box ...
Switching to 'neigh_modify every 1 delay 0 check yes' setting during minimization
Neighbor list info ...
  update: every = 1 steps, delay = 0 steps, check = yes
  max neighbors/atom: 2000, page size: 100000
  master list distance cutoff = 8.1825
  ghost atom cutoff = 8.1825
  binsize = 8.1825, bins = 20 20 16
  1 neighbor lists, perpetual/occasional/extra = 1 0 0
  (1) pair eam/alloy/kk, perpetual
      attributes: full, newton off, kokkos_device
      pair build: full/bin/kk/device
      stencil: full/bin/3d
      bin: kk/device
Setting up cg/kk style minimization ...
  Unit style    : metal
  Current step  : 0
WARNING: Fix MINIMIZE/kk not compatible with sending data in Kokkos communication (src/KOKKOS/comm_kokkos.cpp:766)
WARNING: Fix with atom-based arrays not compatible with sending data in Kokkos communication, switching to classic exchange/border communication (src/KOKKOS/comm_kokkos.cpp:779)
WARNING: Fix MINIMIZE/kk not compatible with Kokkos sorting on device (src/KOKKOS/atom_kokkos.cpp:212)
WARNING: Fix with atom-based arrays not compatible with Kokkos sorting on device, switching to classic host sorting (src/KOKKOS/atom_kokkos.cpp:218)
Per MPI rank memory allocation (min/avg/max) = 40.44 | 40.44 | 40.44 Mbytes
   Step          Temp          E_pair         E_mol          TotEng         Press          Volume    
         0   0             -432603.64      0             -432603.64     -1585.2738      3435667.6    
        23   0             -432625.91      0             -432625.91     -858.13137      3435667.6    
Loop time of 0.331769 on 1 procs for 23 steps with 130899 atoms

47.6% CPU use with 1 MPI tasks x 1 OpenMP threads

Minimization stats:
  Stopping criterion = linesearch alpha is zero
  Energy initial, next-to-last, final = 
     -432603.639260474  -432625.907008582  -432625.907008582
  Force two-norm initial, final = 14.124092 0.13113456
  Force max component initial, final = 0.37864385 0.0035973836
  Final line search alpha, max atom move = 4.7683716e-07 1.7153662e-09
  Iterations, force evaluations = 23 87

MPI task timing breakdown:
Section |  min time  |  avg time  |  max time  |%varavg| %total
---------------------------------------------------------------
Pair    | 0.072365   | 0.072365   | 0.072365   |   0.0 | 21.81
Neigh   | 0          | 0          | 0          |   0.0 |  0.00
Comm    | 0.040224   | 0.040224   | 0.040224   |   0.0 | 12.12
Output  | 0          | 0          | 0          |   0.0 |  0.00
Modify  | 0          | 0          | 0          |   0.0 |  0.00
Other   |            | 0.2192     |            |       | 66.06

Nlocal:         130899 ave      130899 max      130899 min
Histogram: 1 0 0 0 0 0 0 0 0 0
Nghost:          30420 ave       30420 max       30420 min
Histogram: 1 0 0 0 0 0 0 0 0 0
Neighs:              0 ave           0 max           0 min
Histogram: 1 0 0 0 0 0 0 0 0 0
FullNghs:  1.76884e+07 ave 1.76884e+07 max 1.76884e+07 min
Histogram: 1 0 0 0 0 0 0 0 0 0

Total # of neighbors = 17688438
Ave neighs/atom = 135.13043
Neighbor list builds = 0
Dangerous builds = 0
System init for write_data ...
Setting up Verlet run ...
  Unit style    : metal
  Current step  : 23
  Time step     : 0.0005
Per MPI rank memory allocation (min/avg/max) = 43.29 | 43.29 | 43.29 Mbytes
   Step          Temp           Pxx            Pyy            Pzz           Press          Volume    
        23   300            344.26938      349.53307      1468.2704      720.69093      3432091.6    
      1000   152.73784      3.8037777      8.5367279      1214.6831      409.00786      3472985.7    
      2000   157.41333      0.86745238    -6.2757159      495.94152      163.51108      3469247.8    
      3000   161.65706      4.8440161     -4.2534202     -677.15806     -225.52249      3456927      
      4000   165.59053      0.099531048   -0.28947733    -1351.4767     -450.55555      3453516.9    
      5000   169.57915      13.241265     -9.5279929     -1695.1275     -563.80475      3444342.9    
      6000   175.40673      1.1027414      5.996093      -1067.9709     -353.62401      3453308.7    
      7000   181.32709      5.3603089     -4.5258672     -215.40603     -71.523864      3468750.6    
      8000   185.90803     -4.9366333      16.622569      850.72588      287.47061      3480367.9    
      9000   190.47417     -10.305206      7.1150767      1348.556       448.45529      3494912.1    
     10000   195.9123       3.8917685      2.719754       1563.8894      523.50032      3494960.4    
     11000   200.64131     -1.225286       4.3600979      1047.3844      350.17308      3489755.4    
     12000   205.61584     -0.72608019    -8.8176016      191.52252      60.659612      3477741.6    
     13000   210.00923     -7.2151095      3.6019689     -936.08581     -313.23298      3464407.9    
     14000   213.70994      4.464743      -1.2793531     -1622.7682     -539.86092      3461599.2    
     15000   217.76745      5.8811772     -2.211041      -1748.8423     -581.72405      3466899.4    
     16000   223.24467     -1.3957833      4.7406023     -946.64371     -314.43296      3474140      
     17000   228.56894      11.560861      0.27418044     123.69933      45.178125      3485926.4    
     18000   233.15706     -7.1136103      7.6173012      1120.9575      373.8204       3502284.1    
     19000   236.46018      6.7020907     -14.435613      1577.5296      523.26537      3515416.8    
     20000   240.19604     -6.5577042      3.9355096      1536.8784      511.41873      3509084.3    
     21000   246.04285     -3.6453333      11.139908      820.76019      276.08492      3503197.2    
     22000   249.28179      7.768894      -11.909819     -163.20605     -55.782326      3491782.8    
     23000   252.08707     -8.2510529     -2.1325058     -1218.3684     -409.584        3486743.9    
     24000   254.29674     -6.7567831      0.98346812    -1661.8842     -555.88585      3473168.2    
     25000   258.47016      5.5697642      4.9146118     -1484.8169     -491.44418      3479521.3    
     26000   262.64623      27.400317     -5.0772843     -691.96083     -223.2126       3482750.6    
     27000   266.48302      11.377485      2.8138872      336.25205      116.81447      3499355.3    
     28000   269.56218     -3.0663682      8.8744125      1114.5065      373.43818      3524753.6    
     29000   271.97118     -6.860628       11.038897      1489.4615      497.87992      3524954.7    
     30000   274.78917      2.3418767      1.6101893      1351.6912      451.88109      3531337.3    
     31000   276.91331     -4.405016      -1.576584       764.84883      252.95574      3511228.3    
     32000   278.94975     -11.421289      11.550617     -211.44514     -70.438604      3495566.7    
     33000   281.12789     -2.1844963     -12.027316     -1069.695      -361.30227      3493018.5    
     34000   282.66205      5.995123       3.1713077     -1627.4072     -539.4136       3482061.6    
     35000   284.83174     -8.4697541      14.215604     -1370.937      -455.06373      3491167.9    
     36000   287.3787       1.4115382     -0.4542473     -707.26236     -235.43502      3508964      
     37000   289.71013     -10.136667      14.665532      354.45198      119.66028      3514170.2    
     38000   291.24065      5.1087776     -0.71323551     1066.3027      356.89943      3526441.4    
     39000   290.82101     -15.446371      6.2310634      1450.8968      480.56051      3527955.2    
     40000   292.76451     -13.822439     -2.5610444      1218.3103      400.64228      3530420.5    
     41000   294.98534      24.663624     -36.830096      685.16359      224.33237      3521096.2    
     42000   294.602        8.8972014     -20.43746      -250.40348     -87.31458       3509152.1    
     43000   295.51081      4.5370092      2.0236077     -929.80172     -307.74703      3501171.8    
     44000   295.80566     -6.3515525      5.6239818     -1514.7889     -505.17217      3490138.9    
     45000   296.34713     -11.781835      19.600898     -1235.6592     -409.28005      3494561.3    
     46000   297.98148      8.2459094     -1.7159987     -660.47358     -217.98122      3510558.6    
     47000   299.31812      14.596741     -11.519508      277.96719      93.681473      3516999.2    
     48000   299.42115      7.7774581     -11.176133      852.84697      283.14943      3526747.6    
     49000   299.86725      19.649696     -1.1489167      1335.8375      451.44608      3538455.3    
     50000   299.152       -19.511115      3.9465489      1120.8685      368.43465      3538275      
     50023   299.59203     -3.4441221     -0.31974616     1119.9652      372.0671       3537999.4    
Loop time of 81.4076 on 1 procs for 50000 steps with 130899 atoms

Performance: 26.533 ns/day, 0.905 hours/ns, 614.193 timesteps/s, 80.397 Matom-step/s
99.0% CPU use with 1 MPI tasks x 1 OpenMP threads

MPI task timing breakdown:
Section |  min time  |  avg time  |  max time  |%varavg| %total
---------------------------------------------------------------
Pair    | 57.072     | 57.072     | 57.072     |   0.0 | 70.11
Neigh   | 0.42866    | 0.42866    | 0.42866    |   0.0 |  0.53
Comm    | 0.86182    | 0.86182    | 0.86182    |   0.0 |  1.06
Output  | 8.5679     | 8.5679     | 8.5679     |   0.0 | 10.52
Modify  | 12.335     | 12.335     | 12.335     |   0.0 | 15.15
Other   |            | 2.143      |            |       |  2.63

Nlocal:         130899 ave      130899 max      130899 min
Histogram: 1 0 0 0 0 0 0 0 0 0
Nghost:          27159 ave       27159 max       27159 min
Histogram: 1 0 0 0 0 0 0 0 0 0
Neighs:              0 ave           0 max           0 min
Histogram: 1 0 0 0 0 0 0 0 0 0
FullNghs:  1.73388e+07 ave 1.73388e+07 max 1.73388e+07 min
Histogram: 1 0 0 0 0 0 0 0 0 0

Total # of neighbors = 17338798
Ave neighs/atom = 132.45936
Neighbor list builds = 423
Dangerous builds = 0
WARNING: Detected non-ASCII characters in input. Will try to continue by replacing with ASCII equivalents where known. (src/input.cpp:478)
15520 atoms in group frozen_atoms
WARNING: No fixes with time integration, atoms won't move
For more information see https://docs.lammps.org/err0028 (src/verlet.cpp:60)
Setting up Verlet run ...
  Unit style    : metal
  Current step  : 50023
  Time step     : 0.0005
Per MPI rank memory allocation (min/avg/max) = 43.08 | 43.08 | 43.08 Mbytes
   Step          Temp           Pxx            Pyy            Pzz           Press          Volume    
     50023   278.18749     -180.86074     -180.4425       1150.7112      263.13599      3532549.5    
     51000   278.18749     -180.86074     -180.4425       1150.7112      263.13599      3532549.5    
     52000   278.18749     -180.86074     -180.4425       1150.7112      263.13599      3532549.5    
     53000   278.18749     -180.86074     -180.4425       1150.7112      263.13599      3532549.5    
     54000   278.18749     -180.86074     -180.4425       1150.7112      263.13599      3532549.5    
     55000   278.18749     -180.86074     -180.4425       1150.7112      263.13599      3532549.5    
     56000   278.18749     -180.86074     -180.4425       1150.7112      263.13599      3532549.5    
     57000   278.18749     -180.86074     -180.4425       1150.7112      263.13599      3532549.5    
     58000   278.18749     -180.86074     -180.4425       1150.7112      263.13599      3532549.5    
     59000   278.18749     -180.86074     -180.4425       1150.7112      263.13599      3532549.5    
     60000   278.18749     -180.86074     -180.4425       1150.7112      263.13599      3532549.5    
     61000   278.18749     -180.86074     -180.4425       1150.7112      263.13599      3532549.5    
     62000   278.18749     -180.86074     -180.4425       1150.7112      263.13599      3532549.5    
     63000   278.18749     -180.86074     -180.4425       1150.7112      263.13599      3532549.5    
     64000   278.18749     -180.86074     -180.4425       1150.7112      263.13599      3532549.5    
     65000   278.18749     -180.86074     -180.4425       1150.7112      263.13599      3532549.5    
     66000   278.18749     -180.86074     -180.4425       1150.7112      263.13599      3532549.5    
     67000   278.18749     -180.86074     -180.4425       1150.7112      263.13599      3532549.5    
     68000   278.18749     -180.86074     -180.4425       1150.7112      263.13599      3532549.5    
     69000   278.18749     -180.86074     -180.4425       1150.7112      263.13599      3532549.5    
     70000   278.18749     -180.86074     -180.4425       1150.7112      263.13599      3532549.5    
     71000   278.18749     -180.86074     -180.4425       1150.7112      263.13599      3532549.5    
     72000   278.18749     -180.86074     -180.4425       1150.7112      263.13599      3532549.5    
     73000   278.18749     -180.86074     -180.4425       1150.7112      263.13599      3532549.5    
     74000   278.18749     -180.86074     -180.4425       1150.7112      263.13599      3532549.5    
     75000   278.18749     -180.86074     -180.4425       1150.7112      263.13599      3532549.5    
     76000   278.18749     -180.86074     -180.4425       1150.7112      263.13599      3532549.5    
     77000   278.18749     -180.86074     -180.4425       1150.7112      263.13599      3532549.5    
     78000   278.18749     -180.86074     -180.4425       1150.7112      263.13599      3532549.5    
     79000   278.18749     -180.86074     -180.4425       1150.7112      263.13599      3532549.5    
     80000   278.18749     -180.86074     -180.4425       1150.7112      263.13599      3532549.5    
     81000   278.18749     -180.86074     -180.4425       1150.7112      263.13599      3532549.5    
     82000   278.18749     -180.86074     -180.4425       1150.7112      263.13599      3532549.5    
     83000   278.18749     -180.86074     -180.4425       1150.7112      263.13599      3532549.5    
     84000   278.18749     -180.86074     -180.4425       1150.7112      263.13599      3532549.5    
     85000   278.18749     -180.86074     -180.4425       1150.7112      263.13599      3532549.5    
     86000   278.18749     -180.86074     -180.4425       1150.7112      263.13599      3532549.5    
     87000   278.18749     -180.86074     -180.4425       1150.7112      263.13599      3532549.5    
     88000   278.18749     -180.86074     -180.4425       1150.7112      263.13599      3532549.5    
     89000   278.18749     -180.86074     -180.4425       1150.7112      263.13599      3532549.5    
     90000   278.18749     -180.86074     -180.4425       1150.7112      263.13599      3532549.5    
     91000   278.18749     -180.86074     -180.4425       1150.7112      263.13599      3532549.5    
     92000   278.18749     -180.86074     -180.4425       1150.7112      263.13599      3532549.5    
     93000   278.18749     -180.86074     -180.4425       1150.7112      263.13599      3532549.5    
     94000   278.18749     -180.86074     -180.4425       1150.7112      263.13599      3532549.5    
     95000   278.18749     -180.86074     -180.4425       1150.7112      263.13599      3532549.5    
     96000   278.18749     -180.86074     -180.4425       1150.7112      263.13599      3532549.5    
     97000   278.18749     -180.86074     -180.4425       1150.7112      263.13599      3532549.5    
     98000   278.18749     -180.86074     -180.4425       1150.7112      263.13599      3532549.5    
     99000   278.18749     -180.86074     -180.4425       1150.7112      263.13599      3532549.5    
    100000   278.18749     -180.86074     -180.4425       1150.7112      263.13599      3532549.5    
    100023   278.18749     -180.86074     -180.4425       1150.7112      263.13599      3532549.5    
Loop time of 92.8254 on 1 procs for 50000 steps with 130899 atoms

Performance: 23.269 ns/day, 1.031 hours/ns, 538.646 timesteps/s, 70.508 Matom-step/s
97.1% CPU use with 1 MPI tasks x 1 OpenMP threads

MPI task timing breakdown:
Section |  min time  |  avg time  |  max time  |%varavg| %total
---------------------------------------------------------------
Pair    | 21.861     | 21.861     | 21.861     |   0.0 | 23.55
Neigh   | 0          | 0          | 0          |   0.0 |  0.00
Comm    | 0.1535     | 0.1535     | 0.1535     |   0.0 |  0.17
Output  | 36.315     | 36.315     | 36.315     |   0.0 | 39.12
Modify  | 32.894     | 32.894     | 32.894     |   0.0 | 35.44
Other   |            | 1.601      |            |       |  1.73

Nlocal:         130899 ave      130899 max      130899 min
Histogram: 1 0 0 0 0 0 0 0 0 0
Nghost:          27172 ave       27172 max       27172 min
Histogram: 1 0 0 0 0 0 0 0 0 0
Neighs:              0 ave           0 max           0 min
Histogram: 1 0 0 0 0 0 0 0 0 0
FullNghs:  1.73382e+07 ave 1.73382e+07 max 1.73382e+07 min
Histogram: 1 0 0 0 0 0 0 0 0 0

Total # of neighbors = 17338214
Ave neighs/atom = 132.4549
Neighbor list builds = 0
Dangerous builds = 0
Total wall time: 0:03:01
