
Lmod is automatically replacing "gcc/12.3" with "intel/2023.2.1".


Due to MODULEPATH changes, the following have been reloaded:
  1) aocl-blas/5.1     2) aocl-lapack/5.1     3) flexiblas/3.3.1     4) openmpi/4.1.5

LAMMPS (22 Jul 2025 - Development - patch_22Jul2025-72-g8b7fdf9ad3)
KOKKOS mode with Kokkos version 4.6.2 is enabled
  will use up to 1 GPU(s) per node
  using 1 OpenMP thread(s) per MPI task
WARNING: Detected non-ASCII characters in input. Will try to continue by replacing with ASCII equivalents where known. (src/input.cpp:478)
Created orthogonal box = (-50 -57.32 0) to (50 57.32 130)
  1 by 1 by 1 MPI processor grid
Lattice spacing in x,y,z = 2.866 2.866 2.866
Created 57960 atoms
  using lattice units in orthogonal box = (-50 -57.32 0) to (50 57.32 130)
  create_atoms CPU = 0.121 seconds
Lattice spacing in x,y,z = 4.05 4.05 4.05
Created 249 atoms
  using lattice units in orthogonal box = (-50 -57.32 0) to (50 57.32 130)
  create_atoms CPU = 0.001 seconds
249 atoms in group particle_group
57960 atoms in group substrate_group
19320 atoms in group frozen_atoms
9680 atoms in group thermostat_atoms
28960 atoms in group mobile_atoms
29209 atoms in group nve_atoms
Reading eam/fs potential file /home/wuwen123/comp/yao/lammps/potentials/AlFe_mm.eam.fs with DATE: 2007-06-11
Neighbor list info ...
  update: every = 1 steps, delay = 0 steps, check = yes
  max neighbors/atom: 2000, page size: 100000
  master list distance cutoff = 12
  ghost atom cutoff = 12
  binsize = 12, bins = 9 10 11
  2 neighbor lists, perpetual/occasional/extra = 2 0 0
  (1) pair eam/fs, perpetual
      attributes: full, newton off, kokkos_device
      pair build: full/bin/kk/device
      stencil: full/bin/3d
      bin: kk/device
  (2) pair lj/cut, perpetual, skip from (1)
      attributes: full, newton off, kokkos_device
      pair build: skip/kk/device
      stencil: none
      bin: none
Setting up Verlet run ...
  Unit style    : metal
  Current step  : 0
  Time step     : 0.0001
Per MPI rank memory allocation (min/avg/max) = 17.51 | 17.51 | 17.51 Mbytes
   Step          Time           Temp          PotEng         KinEng         TotEng         Press     
         0   0              150.4095      -229780.73      1131.6773     -228649.06     -10699.786    
       200   0.02           80.531419     -229256.75      605.91634     -228650.84     -10812.421    
       400   0.04           47.511874     -228927.04      357.47813     -228569.57     -11622.546    
       600   0.06           88.310421     -229096.37      664.44535     -228431.92     -13283.465    
       800   0.08           91.785576     -229029.24      690.59234     -228338.65     -14245.625    
      1000   0.1            108.48866     -229057.96      816.26588     -228241.69     -14838.821    
      1200   0.12           114.92453     -229016.07      864.68922     -228151.38     -15557.766    
      1400   0.14           101.49539     -228841.78      763.6487      -228078.13     -16290.897    
      1600   0.16           113.81109     -228843.3       856.31175     -227986.99     -17408.688    
      1800   0.18           116.37065     -228789.08      875.56984     -227913.51     -18209.963    
      2000   0.2            116.78566     -228738.19      878.69235     -227859.49     -18612.934    
      2200   0.22           131.33746     -228784.79      988.1797      -227796.61     -19141.221    
      2400   0.24           132.40127     -228728.26      996.18375     -227732.08     -19781.296    
      2600   0.26           132.60583     -228654.4       997.72292     -227656.68     -20556.063    
      2800   0.28           139.0361      -228619.26      1046.1041     -227573.16     -21436.829    
      3000   0.3            141.6906      -228568.23      1066.0765     -227502.16     -22172.71     
      3200   0.32           146.78131     -228543.38      1104.3789     -227439        -22753.776    
      3400   0.34           152.87411     -228523.98      1150.2209     -227373.76     -23386.223    
      3600   0.36           156.41786     -228479.6       1176.884      -227302.72     -24098.872    
      3800   0.38           159.45729     -228425.77      1199.7526     -227226.02     -24871.215    
      4000   0.4            163.41511     -228380.42      1229.5311     -227150.89     -25640.598    
      4200   0.42           169.3413      -228355.37      1274.1197     -227081.25     -26366.544    
      4400   0.44           174.28488     -228325.42      1311.315      -227014.11     -26996.348    
      4600   0.46           179.55224     -228293.64      1350.9465     -226942.69     -27672.444    
      4800   0.48           184.52261     -228253.1       1388.3434     -226864.76     -28416.433    
      5000   0.5            188.79541     -228203.56      1420.4918     -226783.07     -29187.654    
      5200   0.52           194.80823     -228166.64      1465.7322     -226700.91     -29987.34     
      5400   0.54           200.39247     -228128.2       1507.7478     -226620.45     -30732.701    
      5600   0.56           206.74795     -228094.45      1555.5663     -226538.88     -31466.485    
      5800   0.58           214.14012     -228064.73      1611.1848     -226453.55     -32222.735    
      6000   0.6            219.4867      -228017.51      1651.4123     -226366.1      -32977.072    
      6200   0.62           223.89995     -227962.65      1684.6175     -226278.03     -33719.418    
      6400   0.64           229.82863     -227919.78      1729.2248     -226190.56     -34466.166    
      6600   0.66           234.71144     -227873.73      1765.9629     -226107.77     -35175.429    
      6800   0.68           237.56999     -227818.44      1787.4706     -226030.97     -35820.464    
      7000   0.7            239.06857     -227757.16      1798.7458     -225958.42     -36409.314    
      7200   0.72           238.35666     -227682.65      1793.3894     -225889.26     -36934.86     
      7400   0.74           235.77256     -227596.53      1773.9467     -225822.58     -37386.989    
      7600   0.76           233.19714     -227512.02      1754.5693     -225757.45     -37784.971    
      7800   0.78           231.51425     -227436         1741.9073     -225694.1      -38130.136    
      8000   0.8            229.57535     -227360.58      1727.3191     -225633.26     -38397.469    
      8200   0.82           227.07656     -227282.66      1708.5183     -225574.14     -38579        
      8400   0.84           225.24135     -227209.64      1694.7102     -225514.93     -38719.87     
      8600   0.86           224.03719     -227140.98      1685.6501     -225455.33     -38870.889    
      8800   0.88           223.15103     -227075.04      1678.9826     -225396.06     -39024.201    
      9000   0.9            223.20569     -227016.18      1679.3939     -225336.79     -39206.337    
      9200   0.92           223.31634     -226957.24      1680.2264     -225277.01     -39442.708    
      9400   0.94           222.51908     -226890.67      1674.2279     -225216.44     -39697.671    
      9600   0.96           221.69242     -226822.38      1668.0081     -225154.37     -39975.644    
      9800   0.98           221.79821     -226759.33      1668.8041     -225090.52     -40294.795    
     10000   1              221.67711     -226695.26      1667.8929     -225027.37     -40597.449    
     10200   1.02           219.65977     -226619.6       1652.7145     -224966.88     -40827.249    
     10400   1.04           217.65134     -226544.24      1637.6031     -224906.64     -41048.303    
     10600   1.06           216.93686     -226477.18      1632.2274     -224844.95     -41310.7      
     10800   1.08           216.58361     -226412.11      1629.5696     -224782.54     -41599.129    
     11000   1.1            216.74431     -226350.66      1630.7787     -224719.89     -41944.701    
     11200   1.12           217.02525     -226290.88      1632.8925     -224657.99     -42326.677    
     11400   1.14           215.55635     -226219.47      1621.8405     -224597.63     -42697.347    
     11600   1.16           213.63468     -226144         1607.3819     -224536.62     -43068.802    
     11800   1.18           212.79402     -226074.29      1601.0568     -224473.23     -43405.81     
     12000   1.2            211.79413     -226001.97      1593.5336     -224408.44     -43700.823    
     12200   1.22           211.42914     -225933.21      1590.7875     -224342.42     -43988.536    
     12400   1.24           211.55656     -225867.75      1591.7462     -224276        -44315.526    
     12600   1.26           210.02334     -225791.07      1580.2103     -224210.86     -44626.951    
     12800   1.28           207.72748     -225709.22      1562.9363     -224146.28     -44931.284    
     13000   1.3            206.22832     -225633.14      1551.6566     -224081.48     -45259.97     
     13200   1.32           205.65351     -225564.86      1547.3318     -224017.53     -45587.594    
     13400   1.34           204.89725     -225498.13      1541.6417     -223956.49     -45875.217    
     13600   1.36           203.73023     -225431.68      1532.861      -223898.82     -46123.27     
     13800   1.38           202.3975      -225366.52      1522.8336     -223843.69     -46343.474    
     14000   1.4            201.09773     -225303.5       1513.0542     -223790.45     -46542.331    
     14200   1.42           200.00819     -225243.85      1504.8565     -223738.99     -46732.574    
     14400   1.44           198.81093     -225185.33      1495.8483     -223689.48     -46894.45     
     14600   1.46           198.17545     -225132.72      1491.067      -223641.65     -47031.93     
     14800   1.48           197.61857     -225082.98      1486.8771     -223596.1      -47162.481    
     15000   1.5            196.15565     -225028.83      1475.8701     -223552.96     -47256.597    
     15200   1.52           194.65012     -224975.56      1464.5426     -223511.02     -47339.791    
     15400   1.54           194.21664     -224931.03      1461.281      -223469.75     -47442.225    
     15600   1.56           193.72963     -224887.43      1457.6168     -223429.81     -47572.538    
     15800   1.58           192.47092     -224838.98      1448.1463     -223390.83     -47714.609    
     16000   1.6            191.02809     -224789.01      1437.2904     -223351.72     -47849.333    
     16200   1.62           189.83568     -224740.51      1428.3188     -223312.19     -47957.468    
     16400   1.64           188.75453     -224692.69      1420.1843     -223272.5      -48048.77     
     16600   1.66           187.54751     -224643.82      1411.1027     -223232.72     -48141.534    
     16800   1.68           186.41598     -224595.31      1402.5891     -223192.72     -48244.241    
     17000   1.7            185.4922      -224548.43      1395.6386     -223152.79     -48343.69     
     17200   1.72           184.51974     -224502.44      1388.3218     -223114.12     -48451.479    
     17400   1.74           182.66577     -224452.03      1374.3726     -223077.66     -48561.144    
     17600   1.76           181.09183     -224404.25      1362.5303     -223041.72     -48665.101    
     17800   1.78           180.8553      -224365.41      1360.7507     -223004.66     -48799.538    
     18000   1.8            180.57189     -224326.3       1358.6183     -222967.69     -48940.144    
     18200   1.82           179.41937     -224281.61      1349.9468     -222931.67     -49091.522    
     18400   1.84           178.68782     -224240.14      1344.4426     -222895.69     -49258.224    
     18600   1.86           178.23918     -224200.99      1341.0671     -222859.92     -49421.597    
     18800   1.88           176.63444     -224154.51      1328.993      -222825.51     -49558.571    
     19000   1.9            174.40563     -224104.33      1312.2235     -222792.1      -49702.962    
     19200   1.92           173.09549     -224061.06      1302.366      -222758.69     -49856.304    
     19400   1.94           172.49144     -224023.47      1297.8212     -222725.65     -50000.717    
     19600   1.96           172.28759     -223989.77      1296.2874     -222693.48     -50138.029    
     19800   1.98           171.07997     -223950.25      1287.2013     -222663.05     -50264.166    
     20000   2              169.11852     -223906.24      1272.4434     -222633.8      -50386.262    
     20200   2.02           168.08031     -223868.3       1264.632      -222603.67     -50529.978    
     20400   2.04           167.28682     -223831.71      1258.6618     -222573.05     -50681.278    
     20600   2.06           165.77437     -223791.24      1247.2821     -222543.96     -50800.189    
     20800   2.08           164.0554      -223751.23      1234.3486     -222516.88     -50914.863    
     21000   2.1            163.27218     -223719.52      1228.4557     -222491.06     -51019.913    
     21200   2.12           162.12533     -223686.48      1219.8268     -222466.65     -51094.795    
     21400   2.14           161.37054     -223656.7       1214.1478     -222442.55     -51166.611    
     21600   2.16           161.10614     -223630.65      1212.1585     -222418.49     -51253.478    
     21800   2.18           159.73652     -223597.59      1201.8535     -222395.74     -51338.686    
     22000   2.2            158.2416      -223564.44      1190.6058     -222373.83     -51430.155    
     22200   2.22           157.36002     -223535.82      1183.9727     -222351.84     -51531.075    
     22400   2.24           157.14004     -223511.9       1182.3177     -222329.58     -51614.324    
     22600   2.26           157.00315     -223488.54      1181.2877     -222307.26     -51696.733    
     22800   2.28           155.96997     -223458.71      1173.5141     -222285.2      -51768.336    
     23000   2.3            154.72937     -223426.85      1164.1799     -222262.67     -51860.275    
     23200   2.32           154.54358     -223401.8       1162.782      -222239.02     -51951.509    
     23400   2.34           154.52845     -223378.09      1162.6681     -222215.43     -52039.094    
     23600   2.36           153.47654     -223347.69      1154.7536     -222192.94     -52114.425    
     23800   2.38           152.57777     -223318.63      1147.9912     -222170.64     -52173.119    
     24000   2.4            152.75052     -223296.63      1149.291      -222147.33     -52233.643    
     24200   2.42           152.99112     -223274.47      1151.1013     -222123.37     -52317.472    
     24400   2.44           152.69005     -223248.97      1148.8361     -222100.14     -52411.578    
     24600   2.46           152.09769     -223223.09      1144.3792     -222078.71     -52484.009    
     24800   2.48           151.87484     -223201.78      1142.7024     -222059.08     -52513.679    
     25000   2.5            151.92271     -223184.45      1143.0626     -222041.39     -52565.12     
     25200   2.52           151.23638     -223164.1       1137.8987     -222026.2      -52623.427    
     25400   2.54           150.52112     -223144.83      1132.5171     -222012.32     -52654.082    
     25600   2.56           150.73715     -223132.66      1134.1425     -221998.52     -52654.587    
     25800   2.58           150.86783     -223121.08      1135.1257     -221985.95     -52635.656    
     26000   2.6            150.45084     -223107.85      1131.9883     -221975.86     -52617.491    
     26200   2.62           149.65751     -223094.09      1126.0193     -221968.07     -52602.239    
     26400   2.64           149.45499     -223085.05      1124.4955     -221960.56     -52559.575    
     26600   2.66           150.26307     -223082.7       1130.5755     -221952.13     -52524.185    
     26800   2.68           150.76494     -223078.51      1134.3515     -221944.16     -52505.54     
     27000   2.7            149.7904      -223064.63      1127.0191     -221937.61     -52503.125    
     27200   2.72           148.86819     -223051.3       1120.0805     -221931.22     -52500.265    
     27400   2.74           149.17866     -223047         1122.4164     -221924.58     -52485.427    
     27600   2.76           149.61198     -223044.7       1125.6767     -221919.03     -52438.525    
     27800   2.78           149.66768     -223040.63      1126.0958     -221914.53     -52405.277    
     28000   2.8            150.18441     -223039.91      1129.9836     -221909.93     -52398.404    
     28200   2.82           150.44957     -223037.6       1131.9787     -221905.62     -52373.678    
     28400   2.84           150.12612     -223032.21      1129.5451     -221902.67     -52326.965    
     28600   2.86           150.2581      -223031.55      1130.5381     -221901.02     -52302.462    
     28800   2.88           150.77822     -223034.49      1134.4515     -221900.03     -52276.956    
     29000   2.9            151.11064     -223036.27      1136.9526     -221899.31     -52238.286    
     29200   2.92           151.48064     -223038.44      1139.7365     -221898.7      -52195.036    
     29400   2.94           151.97275     -223041.88      1143.4391     -221898.44     -52147.986    
     29600   2.96           152.51707     -223046.49      1147.5346     -221898.96     -52111.006    
     29800   2.98           152.71994     -223049.55      1149.061      -221900.49     -52052.548    
     30000   3              153.19129     -223055.12      1152.6074     -221902.52     -51976.082    
     30200   3.02           154.35615     -223066.18      1161.3718     -221904.81     -51906.75     
     30400   3.04           155.56601     -223078.61      1170.4747     -221908.13     -51827.568    
     30600   3.06           156.37242     -223089         1176.5421     -221912.45     -51727.71     
     30800   3.08           156.88125     -223097.22      1180.3706     -221916.85     -51624.828    
     31000   3.1            157.57761     -223106.9       1185.6099     -221921.29     -51552.406    
     31200   3.12           158.2376      -223117.09      1190.5757     -221926.51     -51498.449    
     31400   3.14           158.50523     -223125.28      1192.5893     -221932.69     -51426.154    
     31600   3.16           159.53604     -223139.54      1200.3451     -221939.19     -51347.169    
     31800   3.18           160.67515     -223155.61      1208.9157     -221946.69     -51285.236    
     32000   3.2            160.9346      -223166.44      1210.8678     -221955.57     -51213.258    
     32200   3.22           161.3924      -223179.2       1214.3123     -221964.89     -51134.104    
     32400   3.24           162.62933     -223198.36      1223.619      -221974.74     -51049.339    
     32600   3.26           163.65703     -223218.05      1231.3514     -221986.7      -50927.75     
     32800   3.28           164.1288      -223235.63      1234.9009     -222000.73     -50795.377    
     33000   3.3            164.8196      -223254.77      1240.0985     -222014.67     -50689.271    
     33200   3.32           165.90284     -223275.76      1248.2488     -222027.51     -50601.591    
     33400   3.34           166.792       -223295.04      1254.9387     -222040.1      -50500.598    
     33600   3.36           167.08381     -223310.41      1257.1343     -222053.28     -50420.754    
     33800   3.38           166.93345     -223323.27      1256.003      -222067.27     -50318.714    
     34000   3.4            167.9474      -223345.26      1263.632      -222081.63     -50223.421    
     34200   3.42           169.90655     -223375.17      1278.3726     -222096.8      -50142.793    
     34400   3.44           170.43762     -223397.09      1282.3683     -222114.72     -50037.514    
     34600   3.46           170.29814     -223416.4       1281.3189     -222135.08     -49914.606    
     34800   3.48           170.94539     -223442.37      1286.1888     -222156.18     -49777.576    
     35000   3.5            171.99342     -223471.39      1294.0741     -222177.32     -49608.485    
     35200   3.52           173.69403     -223504.48      1306.8695     -222197.61     -49450.394    
     35400   3.54           175.01396     -223534.34      1316.8006     -222217.54     -49331.083    
     35600   3.56           175.36689     -223558.23      1319.456      -222238.78     -49222.954    
     35800   3.58           175.69403     -223583.49      1321.9174     -222261.57     -49093.857    
     36000   3.6            176.56682     -223613.5       1328.4843     -222285.01     -48952.008    
     36200   3.62           177.77013     -223646.02      1337.5379     -222308.48     -48808.065    
     36400   3.64           179.60758     -223682.49      1351.3628     -222331.13     -48674.891    
     36600   3.66           181.28236     -223717.09      1363.9639     -222353.13     -48552.084    
     36800   3.68           181.99944     -223744.53      1369.3592     -222375.18     -48436.225    
     37000   3.7            182.36137     -223769.31      1372.0823     -222397.23     -48304.072    
     37200   3.72           183.94083     -223803.15      1383.9661     -222419.19     -48204.512    
     37400   3.74           185.54476     -223838.1       1396.0341     -222442.06     -48109.671    
     37600   3.76           185.75726     -223864.22      1397.6329     -222466.59     -47978.316    
     37800   3.78           187.26322     -223900.18      1408.9637     -222491.21     -47848.071    
     38000   3.8            190.14704     -223946.44      1430.6615     -222515.78     -47757.737    
     38200   3.82           191.14574     -223980.21      1438.1757     -222542.04     -47649.607    
     38400   3.84           190.41586     -224002.01      1432.6841     -222569.33     -47521.776    
     38600   3.86           190.99436     -224032.54      1437.0367     -222595.5      -47396.09     
     38800   3.88           193.29062     -224075.49      1454.3137     -222621.17     -47285.296    
     39000   3.9            195.51429     -224119.29      1471.0445     -222648.24     -47174.822    
     39200   3.92           196.15554     -224153.17      1475.8693     -222677.3      -47050.397    
     39400   3.94           196.85752     -224187.82      1481.151      -222706.67     -46914.775    
     39600   3.96           198.62476     -224230.44      1494.4476     -222735.99     -46786.611    
     39800   3.98           199.88402     -224270.5       1503.9223     -222766.58     -46680.104    
     40000   4              200.43236     -224306.08      1508.048      -222798.03     -46582.13     
     40200   4.02           201.73568     -224346.6       1517.8541     -222828.75     -46491.333    
     40400   4.04           203.23731     -224388.85      1529.1523     -222859.7      -46368.634    
     40600   4.06           203.32454     -224421.9       1529.8087     -222892.1      -46228.065    
     40800   4.08           204.25222     -224460.61      1536.7885     -222923.82     -46127.908    
     41000   4.1            206.61877     -224509.29      1554.5943     -222954.69     -46054.343    
     41200   4.12           207.27445     -224546.48      1559.5277     -222986.95     -45956.728    
     41400   4.14           207.43292     -224580.48      1560.72       -223019.76     -45855.922    
     41600   4.16           208.79675     -224623.07      1570.9814     -223052.09     -45764.885    
     41800   4.18           210.14035     -224666.02      1581.0906     -223084.93     -45664.767    
     42000   4.2            211.20427     -224707.94      1589.0955     -223118.84     -45541.179    
     42200   4.22           212.11287     -224749.67      1595.9318     -223153.74     -45428.874    
     42400   4.24           212.79267     -224790.44      1601.0467     -223189.4      -45303.219    
     42600   4.26           213.57397     -224832.35      1606.9251     -223225.43     -45171.84     
     42800   4.28           214.7847      -224877.88      1616.0346     -223261.84     -45036.893    
     43000   4.3            214.88609     -224916.94      1616.7974     -223300.14     -44891.583    
     43200   4.32           215.04419     -224957.69      1617.987      -223339.7      -44723.467    
     43400   4.34           216.58986     -225008.41      1629.6166     -223378.8      -44582.609    
     43600   4.36           218.78496     -225063.87      1646.1324     -223417.74     -44453.697    
     43800   4.38           219.24244     -225108.19      1649.5745     -223458.62     -44282.58     
     44000   4.4            219.12658     -225149.23      1648.7028     -223500.53     -44088.591    
     44200   4.42           220.0149      -225197.38      1655.3865     -223542        -43910.575    
     44400   4.44           221.39452     -225249.37      1665.7667     -223583.61     -43756.417    
     44600   4.46           222.55646     -225300.81      1674.5091     -223626.3      -43585.289    
     44800   4.48           223.21175     -225349.49      1679.4395     -223670.05     -43392.765    
     45000   4.5            223.96782     -225398.93      1685.1282     -223713.8      -43210.297    
     45200   4.52           224.25224     -225444.89      1687.2682     -223757.62     -43005.471    
     45400   4.54           224.80891     -225492.63      1691.4565     -223801.18     -42808.887    
     45600   4.56           225.98952     -225545.43      1700.3394     -223845.09     -42629.637    
     45800   4.58           226.48136     -225594.49      1704.04       -223890.45     -42409.362    
     46000   4.6            227.30127     -225646.46      1710.209      -223936.25     -42205.195    
     46200   4.62           228.23339     -225700.55      1717.2222     -223983.33     -41987.754    
     46400   4.64           228.72333     -225752.86      1720.9085     -224031.95     -41750.936    
     46600   4.66           229.42753     -225806.36      1726.2069     -224080.15     -41539.622    
     46800   4.68           229.82862     -225856.99      1729.2247     -224127.76     -41332.355    
     47000   4.7            229.81516     -225904.85      1729.1234     -224175.73     -41091.616    
     47200   4.72           230.63849     -225959.15      1735.3181     -224223.83     -40846.395    
     47400   4.74           231.76038     -226016.07      1743.7592     -224272.31     -40602.46     
     47600   4.76           232.38201     -226069.73      1748.4364     -224321.29     -40338.424    
     47800   4.78           232.72611     -226121.18      1751.0253     -224370.15     -40087.372    
     48000   4.8            232.94464     -226171.2       1752.6695     -224418.53     -39842.262    
     48200   4.82           233.15507     -226220.92      1754.2528     -224466.66     -39593.54     
     48400   4.84           233.38056     -226270.59      1755.9494     -224514.64     -39342.702    
     48600   4.86           234.16222     -226324.66      1761.8306     -224562.83     -39093.937    
     48800   4.88           234.53216     -226377.55      1764.614      -224612.94     -38820.488    
     49000   4.9            234.07442     -226425.7       1761.1699     -224664.53     -38518.441    
     49200   4.92           233.9871      -226475.61      1760.513      -224715.1      -38236.434    
     49400   4.94           234.89539     -226531.62      1767.347      -224764.27     -38002.654    
     49600   4.96           235.22796     -226584.04      1769.8492     -224814.19     -37742.444    
     49800   4.98           234.78469     -226631.92      1766.5141     -224865.41     -37458.335    
     50000   5              234.46722     -226680.75      1764.1254     -224916.63     -37152.795    
     50200   5.02           234.01609     -226728.51      1760.7311     -224967.78     -36820.855    
     50400   5.04           233.81805     -226778.42      1759.2411     -225019.18     -36501.858    
     50600   5.06           233.83068     -226829.95      1759.3361     -225070.61     -36202.283    
     50800   5.08           234.24743     -226883.76      1762.4717     -225121.29     -35884.713    
     51000   5.1            233.6975      -226929.91      1758.334      -225171.58     -35546.732    
     51200   5.12           232.49641     -226971.2       1749.2971     -225221.9      -35183.447    
     51400   5.14           231.51402     -227013.9       1741.9056     -225272        -34830.954    
     51600   5.16           230.51528     -227056.18      1734.3911     -225321.78     -34460.823    
     51800   5.18           230.05826     -227101.42      1730.9525     -225370.46     -34097.195    
     52000   5.2            230.3186      -227150.15      1732.9113     -225417.24     -33737.062    
     52200   5.22           229.53006     -227189.84      1726.9783     -225462.86     -33357.164    
     52400   5.24           227.83933     -227221.2       1714.2573     -225506.94     -32969.762    
     52600   5.26           227.44484     -227259.54      1711.2892     -225548.25     -32602.935    
     52800   5.28           226.98885     -227296.58      1707.8583     -225588.72     -32243.408    
     53000   5.3            226.94311     -227335.85      1707.5142     -225628.33     -31873.301    
     53200   5.32           226.54721     -227371.17      1704.5354     -225666.63     -31515.482    
     53400   5.34           225.20777     -227399.08      1694.4575     -225704.62     -31165.448    
     53600   5.36           223.99514     -227427.79      1685.3338     -225742.45     -30821.455    
     53800   5.38           223.27561     -227459.51      1679.92       -225779.59     -30487.151    
     54000   5.4            222.03308     -227487.55      1670.5712     -225816.98     -30115.173    
     54200   5.42           221.12162     -227518.35      1663.7134     -225854.64     -29753.194    
     54400   5.44           220.91055     -227554.74      1662.1254     -225892.61     -29408.829    
     54600   5.46           218.94942     -227578.64      1647.3698     -225931.27     -29078.464    
     54800   5.48           216.54122     -227598.13      1629.2506     -225968.88     -28734.866    
     55000   5.5            216.1939      -227631.34      1626.6374     -226004.7      -28437.995    
     55200   5.52           216.31929     -227668.84      1627.5809     -226041.26     -28148.139    
     55400   5.54           214.86649     -227696.06      1616.65       -226079.41     -27841.497    
     55600   5.56           213.00096     -227719.25      1602.6138     -226116.63     -27526.294    
     55800   5.58           210.86202     -227738.06      1586.5205     -226151.54     -27243.985    
     56000   5.6            209.66086     -227760.08      1577.483      -226182.6      -27022.291    
     56200   5.62           209.26867     -227784.95      1574.5321     -226210.42     -26840.461    
     56400   5.64           208.29908     -227804.4       1567.237      -226237.16     -26644.38     
     56600   5.66           206.53972     -227817.23      1553.9996     -226263.23     -26455.853    
     56800   5.68           205.86201     -227836.27      1548.9005     -226287.37     -26290.303    
     57000   5.7            205.75046     -227858.54      1548.0612     -226310.48     -26157.61     
     57200   5.72           205.62476     -227879.8       1547.1155     -226332.68     -26066.87     
     57400   5.74           204.40961     -227890.95      1537.9727     -226352.98     -25946.642    
     57600   5.76           203.20812     -227898.76      1528.9327     -226369.83     -25787.259    
     57800   5.78           202.37865     -227906.48      1522.6918     -226383.79     -25674.591    
     58000   5.8            203.55919     -227925.43      1531.5742     -226393.85     -25616.581    
     58200   5.82           204.68027     -227940.32      1540.0091     -226400.32     -25603.519    
     58400   5.84           203.34351     -227934.3       1529.9514     -226404.35     -25568.013    
     58600   5.86           202.94842     -227929.4       1526.9788     -226402.42     -25587.066    
     58800   5.88           204.57099     -227932.27      1539.1869     -226393.08     -25677.899    
     59000   5.9            205.16232     -227923.21      1543.6361     -226379.58     -25800.657    
     59200   5.92           205.53678     -227907.95      1546.4535     -226361.5      -25951.014    
     59400   5.94           206.24697     -227890.82      1551.7969     -226339.02     -26127.778    
     59600   5.96           206.92147     -227871.5       1556.8719     -226314.63     -26301.53     
     59800   5.98           207.58379     -227851.02      1561.8552     -226289.16     -26491.554    
     60000   6              208.63954     -227832.22      1569.7986     -226262.43     -26720.452    
     60200   6.02           210.29446     -227816.02      1582.2501     -226233.77     -26967.471    
     60400   6.04           211.04916     -227791.56      1587.9285     -226203.63     -27225.615    
     60600   6.06           211.7586      -227765.09      1593.2663     -226171.83     -27497.829    
     60800   6.08           214.08185     -227748.86      1610.7464     -226138.12     -27827.246    
     61000   6.1            216.004       -227729.71      1625.2086     -226104.5      -28122.489    
     61200   6.12           216.97473     -227703.85      1632.5123     -226071.34     -28402.276    
     61400   6.14           218.52036     -227681.84      1644.1416     -226037.7      -28717.338    
     61600   6.16           219.53133     -227655.9       1651.7482     -226004.16     -29038.266    
     61800   6.18           220.01148     -227625.61      1655.3607     -225970.25     -29328.541    
     62000   6.2            221.65586     -227602.45      1667.7331     -225934.72     -29674.932    
     62200   6.22           223.70394     -227581.91      1683.1427     -225898.77     -30032.296    
     62400   6.24           224.55572     -227552.92      1689.5515     -225863.37     -30381.522    
     62600   6.26           225.83006     -227526.55      1699.1396     -225827.41     -30720.927    
     62800   6.28           226.92309     -227498.22      1707.3635     -225790.86     -31075.946    
     63000   6.3            227.1349      -227463.19      1708.9572     -225754.23     -31433.482    
     63200   6.32           227.77792     -227430.86      1713.7953     -225717.07     -31807.391    
     63400   6.34           228.40239     -227398.54      1718.4938     -225680.05     -32170.843    
     63600   6.36           228.71427     -227363.82      1720.8404     -225642.98     -32519.44     
     63800   6.38           229.62626     -227331.64      1727.7021     -225603.94     -32877.342    
     64000   6.4            230.31626     -227296.21      1732.8936     -225563.31     -33272.715    
     64200   6.42           229.83237     -227251.24      1729.2529     -225521.99     -33679.569    
     64400   6.44           229.79733     -227207.81      1728.9893     -225478.82     -34066.446    
     64600   6.46           230.85794     -227170.05      1736.9693     -225433.08     -34442.291    
     64800   6.48           230.72308     -227123.31      1735.9546     -225387.35     -34810.992    
     65000   6.5            230.00347     -227072.3       1730.5403     -225341.76     -35181.229    
     65200   6.52           230.00808     -227025.5       1730.5749     -225294.93     -35565.83     
     65400   6.54           229.76429     -226976.8       1728.7406     -225248.06     -35915.896    
     65600   6.56           229.44155     -226927.55      1726.3124     -225201.23     -36284.528    
     65800   6.58           229.39084     -226879.39      1725.9309     -225153.46     -36654.889    
     66000   6.6            228.92026     -226827.68      1722.3902     -225105.29     -36987.977    
     66200   6.62           228.97879     -226779.67      1722.8306     -225056.83     -37331.232    
     66400   6.64           228.32645     -226726.82      1717.9224     -225008.9      -37682.163    
     66600   6.66           227.50494     -226673.24      1711.7414     -224961.49     -38008.44     
     66800   6.68           226.34089     -226618.08      1702.9831     -224915.1      -38299.075    
     67000   6.7            224.89299     -226561.45      1692.0891     -224869.36     -38565.152    
     67200   6.72           225.15413     -226516.72      1694.0539     -224822.67     -38859.397    
     67400   6.74           224.91353     -226468.63      1692.2436     -224776.39     -39155.881    
     67600   6.76           224.16534     -226417.67      1686.6143     -224731.06     -39422.915    
     67800   6.78           223.38899     -226367.52      1680.7731     -224686.74     -39677.525    
     68000   6.8            222.90362     -226320.35      1677.1211     -224643.23     -39931.049    
     68200   6.82           222.96164     -226277.48      1677.5577     -224599.92     -40173.982    
     68400   6.84           222.0881      -226228.63      1670.9852     -224557.65     -40368.377    
     68600   6.86           221.173       -226180.3       1664.1        -224516.2      -40556.161    
     68800   6.88           221.05594     -226138.39      1663.2193     -224475.17     -40748.454    
     69000   6.9            220.08331     -226091.52      1655.9012     -224435.62     -40942.611    
     69200   6.92           218.88896     -226044.36      1646.915      -224397.45     -41123.731    
     69400   6.94           218.72023     -226005.47      1645.6454     -224359.83     -41285.802    
     69600   6.96           218.14421     -225964.45      1641.3115     -224323.13     -41427.803    
     69800   6.98           217.30613     -225922.06      1635.0058     -224287.05     -41578.478    
     70000   7              216.18132     -225878.69      1626.5428     -224252.14     -41750.454    
     70200   7.02           215.33749     -225838.83      1620.1938     -224218.64     -41904.278    
     70400   7.04           215.67901     -225808.11      1622.7634     -224185.34     -42046.978    
     70600   7.06           216.17805     -225778.74      1626.5181     -224152.23     -42188.05     
     70800   7.08           214.8339      -225736.31      1616.4048     -224119.91     -42327.744    
     71000   7.1            213.58745     -225695.02      1607.0265     -224087.99     -42486.193    
     71200   7.12           212.85389     -225659.94      1601.5073     -224058.43     -42633.152    
     71400   7.14           212.59348     -225631.47      1599.5479     -224031.92     -42740.681    
     71600   7.16           212.89889     -225609.65      1601.8458     -224007.81     -42842.802    
     71800   7.18           211.89762     -225580.77      1594.3123     -223986.46     -42926.312    
     72000   7.2            211.05802     -225553.93      1587.9951     -223965.93     -43028.705    
     72200   7.22           210.66475     -225529.8       1585.0362     -223944.77     -43124.655    
     72400   7.24           209.61686     -225501         1577.1519     -223923.85     -43192.166    
     72600   7.26           209.12915     -225477.26      1573.4824     -223903.78     -43269.349    
     72800   7.28           208.72959     -225456.41      1570.4761     -223885.93     -43350.669    
     73000   7.3            207.44133     -225431.55      1560.7833     -223870.77     -43407.949    
     73200   7.32           207.01195     -225412.88      1557.5526     -223855.33     -43459.326    
     73400   7.34           207.25817     -225397.96      1559.4052     -223838.55     -43538.36     
     73600   7.36           205.79558     -225370.01      1548.4007     -223821.61     -43605.736    
     73800   7.38           204.59562     -225342.53      1539.3722     -223803.16     -43700.709    
     74000   7.4            205.07268     -225326.71      1542.9616     -223783.75     -43802.295    
     74200   7.42           204.54488     -225305.81      1538.9905     -223766.82     -43881.023    
     74400   7.44           203.13741     -225280.41      1528.4007     -223752        -43934.159    
     74600   7.46           203.33845     -225266.24      1529.9133     -223736.32     -44001.527    
     74800   7.48           203.52496     -225252.23      1531.3166     -223720.91     -44039.236    
     75000   7.5            202.05173     -225227.56      1520.2321     -223707.33     -44073.909    
     75200   7.52           201.3623      -225208.46      1515.0448     -223693.41     -44108.64     
     75400   7.54           201.76879     -225196.27      1518.1032     -223678.17     -44163.934    
     75600   7.56           201.51837     -225178.77      1516.2191     -223662.56     -44211.844    
     75800   7.58           200.54089     -225155.59      1508.8646     -223646.73     -44264.086    
     76000   7.6            200.14246     -225136.65      1505.8668     -223630.79     -44349.208    
     76200   7.62           199.62725     -225118.44      1501.9904     -223616.45     -44419.055    
     76400   7.64           198.90068     -225100.61      1496.5236     -223604.09     -44477.993    
     76600   7.66           199.33329     -225091.75      1499.7786     -223591.98     -44550.457    
     76800   7.68           199.12568     -225078.26      1498.2165     -223580.04     -44600.323    
     77000   7.7            198.49769     -225061.04      1493.4916     -223567.55     -44625.541    
     77200   7.72           197.98051     -225043.92      1489.6003     -223554.32     -44683.776    
     77400   7.74           196.95051     -225023.56      1481.8506     -223541.71     -44755.841    
     77600   7.76           196.13348     -225006.26      1475.7033     -223530.56     -44764.358    
     77800   7.78           196.8801      -225001.25      1481.3209     -223519.93     -44791.838    
     78000   7.8            197.46321     -224995.91      1485.7082     -223510.2      -44805.628    
     78200   7.82           196.42484     -224979.93      1477.8955     -223502.03     -44798.678    
     78400   7.84           195.7583      -224966.45      1472.8805     -223493.57     -44835.175    
     78600   7.86           195.77466     -224957.14      1473.0035     -223484.13     -44897.663    
     78800   7.88           195.47729     -224945.26      1470.7661     -223474.49     -44933.43     
     79000   7.9            195.86747     -224938.24      1473.7019     -223464.54     -44968.26     
     79200   7.92           196.37219     -224932.49      1477.4993     -223454.99     -44978.309    
     79400   7.94           195.48361     -224917.42      1470.8137     -223446.61     -44956.616    
     79600   7.96           195.3455      -224907.59      1469.7746     -223437.82     -44957.228    
     79800   7.98           195.75559     -224901.68      1472.8601     -223428.82     -44980.016    
     80000   8              195.63436     -224892.45      1471.9479     -223420.5      -44997.664    
     80200   8.02           195.85444     -224885.63      1473.6038     -223412.02     -45018.089    
     80400   8.04           196.2953      -224880.63      1476.9208     -223403.71     -45066.824    
     80600   8.06           197.10279     -224879.18      1482.9963     -223396.18     -45109.149    
     80800   8.08           196.66872     -224869.63      1479.7305     -223389.9      -45106.843    
     81000   8.1            195.60168     -224855.7       1471.7021     -223384        -45099.586    
     81200   8.12           195.76238     -224850.68      1472.9112     -223377.77     -45117.726    
     81400   8.14           195.7787      -224844.85      1473.0339     -223371.82     -45133.822    
     81600   8.16           196.12219     -224841.24      1475.6183     -223365.62     -45156.581    
     81800   8.18           197.20747     -224843.37      1483.784      -223359.59     -45199.937    
     82000   8.2            197.43017     -224841.08      1485.4595     -223355.62     -45220.775    
     82200   8.22           195.87738     -224827.86      1473.7764     -223354.08     -45211.97     
     82400   8.24           195.7528      -224825.37      1472.8391     -223352.54     -45213.659    
     82600   8.26           196.53558     -224829.79      1478.7287     -223351.06     -45232.553    
     82800   8.28           195.91218     -224824.46      1474.0383     -223350.42     -45232.439    
     83000   8.3            195.46536     -224819.75      1470.6764     -223349.08     -45257.186    
     83200   8.32           195.72762     -224819.25      1472.6496     -223346.6      -45322.1      
     83400   8.34           195.76277     -224817.04      1472.9141     -223344.12     -45340.333    
     83600   8.36           195.84505     -224816.05      1473.5332     -223342.51     -45324.97     
     83800   8.38           195.6503      -224814.13      1472.0678     -223342.07     -45352.767    
     84000   8.4            195.66573     -224814.19      1472.184      -223342        -45404.284    
     84200   8.42           195.5485      -224813.63      1471.3019     -223342.33     -45440.842    
     84400   8.44           194.98162     -224810.83      1467.0367     -223343.79     -45449.219    
     84600   8.46           194.85314     -224811.83      1466.07       -223345.76     -45455.434    
     84800   8.48           195.4765      -224817.97      1470.7602     -223347.21     -45489.134    
     85000   8.5            195.87728     -224822.01      1473.7757     -223348.24     -45502.595    
     85200   8.52           195.5756      -224820.32      1471.5058     -223348.82     -45500.118    
     85400   8.54           195.86214     -224822.2       1473.6618     -223348.54     -45511.276    
     85600   8.56           195.35285     -224818.83      1469.8299     -223349        -45551.434    
     85800   8.58           194.66481     -224815.7       1464.653      -223351.04     -45586.549    
     86000   8.6            194.53961     -224817.97      1463.7111     -223354.26     -45571.135    
     86200   8.62           195.51248     -224828.36      1471.0309     -223357.33     -45543.434    
     86400   8.64           196.7481      -224840.51      1480.3277     -223360.18     -45542.762    
     86600   8.66           196.59013     -224842.92      1479.1391     -223363.78     -45563.666    
     86800   8.68           196.42543     -224845.34      1477.9        -223367.44     -45556.795    
     87000   8.7            196.86842     -224852.12      1481.233      -223370.89     -45567.716    
     87200   8.72           197.44562     -224860.99      1485.5758     -223375.41     -45554.859    
     87400   8.74           197.40472     -224867.04      1485.2681     -223381.77     -45537.419    
     87600   8.76           197.61778     -224875.84      1486.8712     -223388.97     -45524.13     
     87800   8.78           198.11302     -224887.42      1490.5973     -223396.82     -45490.388    
     88000   8.8            198.34464     -224898.28      1492.34       -223405.94     -45444.365    
     88200   8.82           197.58209     -224903.73      1486.6026     -223417.13     -45365.641    
     88400   8.84           197.23193     -224913.4       1483.968      -223429.43     -45303.79     
     88600   8.86           198.07648     -224932.79      1490.3224     -223442.46     -45247.593    
     88800   8.88           199.16692     -224955.64      1498.5269     -223457.12     -45166.719    
     89000   8.9            199.55469     -224974.82      1501.4444     -223473.37     -45095.88     
     89200   8.92           200.06532     -224995.21      1505.2864     -223489.92     -45036.135    
     89400   8.94           200.60964     -225016.29      1509.3818     -223506.9      -44948.703    
     89600   8.96           200.47787     -225033.56      1508.3904     -223525.17     -44875.073    
     89800   8.98           199.90393     -225048.45      1504.0721     -223544.37     -44766.931    
     90000   9              200.11496     -225068.4       1505.6599     -223562.74     -44674.838    
     90200   9.02           201.71139     -225097.16      1517.6714     -223579.48     -44606.763    
     90400   9.04           202.73092     -225121.05      1525.3423     -223595.71     -44535.217    
     90600   9.06           202.7116      -225137.12      1525.1969     -223611.92     -44463.845    
     90800   9.08           203.00431     -225155.67      1527.3993     -223628.27     -44380.682    
     91000   9.1            203.69225     -225178.05      1532.5753     -223645.48     -44254.021    
     91200   9.12           204.15012     -225199.61      1536.0203     -223663.59     -44129.906    
     91400   9.14           204.84499     -225223.23      1541.2485     -223681.98     -44025.987    
     91600   9.16           205.60451     -225247.43      1546.9631     -223700.46     -43910.077    
     91800   9.18           205.62415     -225266.18      1547.1109     -223719.07     -43759.604    
     92000   9.2            205.88669     -225285.81      1549.0862     -223736.72     -43613.346    
     92200   9.22           207.56333     -225314.89      1561.7012     -223753.19     -43507.303    
     92400   9.24           208.01184     -225335.42      1565.0758     -223770.35     -43406.4      
     92600   9.26           207.49728     -225349.19      1561.2043     -223787.99     -43272.135    
     92800   9.28           208.28039     -225372.1       1567.0963     -223805.01     -43143.669    
     93000   9.3            209.79528     -225400.85      1578.4943     -223822.36     -43017.192    
     93200   9.32           209.71034     -225419.61      1577.8553     -223841.75     -42876.289    
     93400   9.34           210.10124     -225442.47      1580.7964     -223861.67     -42749.716    
     93600   9.36           211.74554     -225474.67      1593.1681     -223881.5      -42644.276    
     93800   9.38           211.99939     -225498.43      1595.078      -223903.35     -42496.95     
     94000   9.4            211.94382     -225520.61      1594.6599     -223925.95     -42343.531    
     94200   9.42           212.68048     -225548.01      1600.2025     -223947.81     -42230.215    
     94400   9.44           212.94939     -225571.58      1602.2258     -223969.36     -42107.322    
     94600   9.46           212.88652     -225591.85      1601.7528     -223990.1      -41968.843    
     94800   9.48           213.77194     -225618.54      1608.4146     -224010.13     -41865.835    
     95000   9.5            215.23317     -225650.68      1619.4089     -224031.27     -41762.508    
     95200   9.52           214.9057      -225672.81      1616.945      -224055.87     -41634.366    
     95400   9.54           214.36878     -225695.74      1612.9053     -224082.84     -41470.494    
     95600   9.56           215.45627     -225731.56      1621.0875     -224110.47     -41339.535    
     95800   9.58           216.00022     -225764         1625.1802     -224138.82     -41218.194    
     96000   9.6            215.94348     -225791.56      1624.7532     -224166.8      -41083.729    
     96200   9.62           216.59657     -225822.5       1629.6671     -224192.84     -40968.225    
     96400   9.64           217.37967     -225853.43      1635.5591     -224217.87     -40864.673    
     96600   9.66           217.02739     -225876.5       1632.9085     -224243.59     -40715.343    
     96800   9.68           216.80665     -225900.41      1631.2477     -224269.16     -40566.153    
     97000   9.7            217.48588     -225930.81      1636.3582     -224294.45     -40447.322    
     97200   9.72           217.59849     -225958.22      1637.2055     -224321.01     -40317.875    
     97400   9.74           217.57794     -225985.19      1637.0509     -224348.14     -40200.281    
     97600   9.76           218.34994     -226017.59      1642.8594     -224374.73     -40066.309    
     97800   9.78           218.76931     -226047.35      1646.0147     -224401.33     -39911.593    
     98000   9.8            218.50441     -226072.18      1644.0216     -224428.16     -39747.771    
     98200   9.82           219.48842     -226105.75      1651.4253     -224454.33     -39630.606    
     98400   9.84           220.56158     -226140.39      1659.4997     -224480.89     -39497.335    
     98600   9.86           219.34791     -226159.52      1650.3681     -224509.15     -39307.753    
     98800   9.88           219.00179     -226183.93      1647.7639     -224536.17     -39149.907    
     99000   9.9            219.94128     -226215.92      1654.8326     -224561.09     -39025.428    
     99200   9.92           219.59313     -226238.16      1652.2132     -224585.95     -38880.141    
     99400   9.94           219.87501     -226264.95      1654.334      -224610.61     -38745.453    
     99600   9.96           220.91214     -226297.48      1662.1373     -224635.35     -38629.614    
     99800   9.98           221.22936     -226325.46      1664.5241     -224660.94     -38508.732    
    100000   10             221.37958     -226353.02      1665.6543     -224687.36     -38349.825    
Loop time of 139.488 on 1 procs for 100000 steps with 58209 atoms

Performance: 6.194 ns/day, 3.875 hours/ns, 716.906 timesteps/s, 41.730 Matom-step/s
98.6% CPU use with 1 MPI tasks x 1 OpenMP threads

MPI task timing breakdown:
Section |  min time  |  avg time  |  max time  |%varavg| %total
---------------------------------------------------------------
Pair    | 97.119     | 97.119     | 97.119     |   0.0 | 69.63
Neigh   | 0.19098    | 0.19098    | 0.19098    |   0.0 |  0.14
Comm    | 0.45402    | 0.45402    | 0.45402    |   0.0 |  0.33
Output  | 23.453     | 23.453     | 23.453     |   0.0 | 16.81
Modify  | 14.527     | 14.527     | 14.527     |   0.0 | 10.41
Other   |            | 3.743      |            |       |  2.68

Nlocal:          58209 ave       58209 max       58209 min
Histogram: 1 0 0 0 0 0 0 0 0 0
Nghost:          29004 ave       29004 max       29004 min
Histogram: 1 0 0 0 0 0 0 0 0 0
Neighs:              0 ave           0 max           0 min
Histogram: 1 0 0 0 0 0 0 0 0 0
FullNghs:  1.08797e+07 ave 1.08797e+07 max 1.08797e+07 min
Histogram: 1 0 0 0 0 0 0 0 0 0

Total # of neighbors = 10879652
Ave neighs/atom = 186.9067
Neighbor list builds = 143
Dangerous builds = 0
System init for write_restart ...
Total wall time: 0:02:26
