
Lmod is automatically replacing "gcc/12.3" with "intel/2023.2.1".


Due to MODULEPATH changes, the following have been reloaded:
  1) aocl-blas/5.1     2) aocl-lapack/5.1     3) flexiblas/3.3.1     4) openmpi/4.1.5

LAMMPS (22 Jul 2025 - Development - patch_22Jul2025-72-g8b7fdf9ad3)
KOKKOS mode with Kokkos version 4.6.2 is enabled
  will use up to 1 GPU(s) per node
  using 1 OpenMP thread(s) per MPI task
WARNING: Detected non-ASCII characters in input. Will try to continue by replacing with ASCII equivalents where known. (src/input.cpp:478)
Created orthogonal box = (-150 -0.5 0) to (150 0.5 840)
  1 by 1 by 1 MPI processor grid
Lattice spacing in x,y,z = 2.866 2.866 2.866
Created 6615 atoms
  using lattice units in orthogonal box = (-150 -0.5 -0.084) to (150 0.5 840.084)
  create_atoms CPU = 0.070 seconds
Lattice spacing in x,y,z = 4.05 4.05 4.05
Created 347 atoms
  using lattice units in orthogonal box = (-150 -0.5 -0.084) to (150 0.5 840.084)
  create_atoms CPU = 0.001 seconds
347 atoms in group particle_group
6615 atoms in group substrate_group
2205 atoms in group frozen_atoms
1155 atoms in group thermostat_atoms
3255 atoms in group mobile_atoms
3602 atoms in group nve_atoms
Reading eam/fs potential file /home/wuwen123/comp/yao/lammps/potentials/AlFe_mm.eam.fs with DATE: 2007-06-11
Neighbor list info ...
  update: every = 1 steps, delay = 0 steps, check = yes
  max neighbors/atom: 2000, page size: 100000
  master list distance cutoff = 8.5
  ghost atom cutoff = 8.5
  binsize = 8.5, bins = 36 1 99
  2 neighbor lists, perpetual/occasional/extra = 2 0 0
  (1) pair eam/fs, perpetual
      attributes: full, newton off, kokkos_device, cut 8.5
      pair build: full/bin/kk/device
      stencil: full/bin/3d
      bin: kk/device
  (2) pair lj/cut, perpetual, copy from (1)
      attributes: full, newton off, kokkos_device
      pair build: copy/kk/device
      stencil: none
      bin: none
WARNING: Proc sub-domain size < neighbor skin, could lead to lost atoms (src/domain.cpp:1204)
Setting up Verlet run ...
  Unit style    : metal
  Current step  : 0
  Time step     : 0.001
WARNING: Required border comm not yet implemented in Kokkos communication, switching to classic exchange/border communication (src/KOKKOS/comm_kokkos.cpp:1089)
Per MPI rank memory allocation (min/avg/max) = 24.72 | 24.72 | 24.72 Mbytes
   Step           Dt            Time           Temp          TotEng         KinEng         PotEng         Press          Volume        Density    
         0   0.001          0              140.23847      797616.26      126.18375      797490.08      26765223       80847.9        7.7797246    
       200   0.001          0.2            161721.59      930902.55      145513.83      785388.72      23512680       93583.914      6.720967     
       400   0.001          0.4            260828.51      1013565.1      234688.24      778876.88      20164585       109969.09      5.7195564    
       600   0.001          0.6            278396.48      1028197.9      250495.54      777702.37      14857222       149023.73      4.2206325    
       800   0.001          0.8            280641.97      1029918.2      252515.99      777402.19      11614087       190321.03      3.3048076    
      1000   0.001          1              279852.24      1029124.7      251805.42      777319.31      9556488.7      231003.39      2.7227929    
      1200   0.001          1.2            277375.07      1026884.6      249576.5       777308.12      8058029.1      273587.06      2.2989918    
      1400   0.001          1.4            274161.77      1024007.6      246685.24      777322.38      6968182        315914.89      1.9909615    
      1600   0.001          1.6            270615         1020824.5      243493.93      777330.56      6129890.7      358547.1       1.7542309    
      1800   0.001          1.8            266880.75      1017471.2      240133.92      777337.25      5463985.4      401588.43      1.5662164    
      2000   0.001          2              263105.37      1014081        236736.92      777344.09      4920692.1      445192.35      1.4128149    
      2200   0.001          2.2            259313.79      1010670.7      233325.33      777345.38      4481720.9      487976.32      1.2889445    
      2400   0.001          2.4            255443.65      1007197        229843.05      777353.96      4111014.4      531084.4       1.184321     
      2600   0.001          2.6            251553.22      1003706        226342.52      777363.47      3798087        573861.9       1.0960379    
      2800   0.001          2.8            247649.58      1000192        222830.11      777361.92      3534053.4      615674.81      1.0216016    
      3000   0.001          3              243756.95      996695.62      219327.59      777368.03      3302110.8      657788.08      0.9561961    
      3200   0.001          3.2            239908.95      993238.49      215865.24      777373.24      3099616.5      699564.25      0.89909455   
      3400   0.001          3.4            236038.2       989763.12      212382.42      777380.69      2923761.5      740386.47      0.84952174   
      3600   0.001          3.6            232217.95      986327.89      208945.04      777382.85      2765290.8      781491.47      0.80483847   
      3800   0.001          3.8            228430.59      982913.91      205537.25      777376.66      2623721.7      822258.34      0.76493526   
      4000   0.001          4              224675.73      979542.03      202158.7       777383.33      2498342        862086.62      0.72959536   
      4200   0.001          4.2            220958.49      976199.61      198814         777385.61      2383370.1      902184.08      0.69716859   
      4400   0.001          4.4            217291.33      972901.09      195514.36      777386.73      2279007        941945.85      0.66773944   
      4600   0.001          4.6            213662.32      969638.1       192249.06      777389.05      2185218.9      980787.32      0.6412954    
      4800   0.001          4.8            210092.04      966428.02      189036.59      777391.42      2098080.6      1019887.1      0.61670984   
      5000   0.001          5              206553.1       963244.95      185852.32      777392.63      2018038        1058656        0.5941254    
      5200   0.001          5.2            203087.55      960129.35      182734.09      777395.26      1945333        1096524.6      0.5736072    
      5400   0.001          5.4            199672.77      957052.56      179661.54      777391.03      1877061.3      1134642.6      0.554337     
      5600   0.001          5.6            196296.93      954018.16      176624.03      777394.13      1813794.8      1172436.1      0.53646795   
      5800   0.001          5.8            192978.5       951033.32      173638.17      777395.16      1755383.7      1209637.9      0.51996915   
      6000   0.001          6              189717.14      948101.6       170703.66      777397.94      1698901.3      1248015.5      0.50397963   
      6200   0.001          6.2            186506.61      945212.88      167814.89      777397.98      1646238.5      1286065.5      0.4890687    
      6400   0.001          6.4            183352.84      942374.57      164977.19      777397.38      1597719.1      1323230        0.47533262   
      6600   0.001          6.6            180252.8       939587.61      162187.84      777399.77      1551605        1360638        0.46226433   
      6800   0.001          6.8            177210.94      936847.78      159450.83      777396.95      1508332.6      1397726.7      0.44999813   
      7000   0.001          7              174214.02      934152.13      156754.27      777397.86      1468223.8      1433952.6      0.43862984   
      7200   0.001          7.2            171272.62      931505.47      154107.65      777397.82      1429898.1      1470416.3      0.4277526    
      7400   0.001          7.4            168383.45      928908.03      151508.04      777399.99      1393746.7      1506569.6      0.41748778   
      7600   0.001          7.6            165552.01      926360.05      148960.37      777399.68      1360058.6      1541882.7      0.40792622   
      7800   0.001          7.8            162766.34      923855.35      146453.88      777401.47      1327719        1577428.8      0.39873394   
      8000   0.001          8              160034.78      921396.07      143996.07      777400         1297072.2      1612673.5      0.39001968   
      8200   0.001          8.2            157354.08      918985.3       141584.03      777401.27      1268401.1      1647100.5      0.38186765   
      8400   0.001          8.4            154724.41      916619.31      139217.91      777401.4       1241012.5      1681412.7      0.37407497   
      8600   0.001          8.6            152138.73      914293.19      136891.36      777401.83      1214828.5      1715608.7      0.3666188    
      8800   0.001          8.8            149605.96      912013.36      134612.43      777400.93      1189889.3      1749518.4      0.35951289   
      9000   0.001          9              147121.71      909779.28      132377.15      777402.13      1166118.4      1783144.8      0.35273322   
      9200   0.001          9.2            144682.39      907582.61      130182.3       777400.31      1143411.5      1816491        0.34625793   
      9400   0.001          9.4            142288.84      905430.67      128028.63      777402.04      1121733.6      1849559.9      0.34006706   
      9600   0.001          9.6            139942.38      903318.99      125917.33      777401.66      1100988.4      1882354.5      0.33414237   
      9800   0.001          9.8            137636.76      901244.58      123842.78      777401.8       1081135.5      1914877.9      0.3284671    
     10000   0.001          10             135382.16      899215.13      121814.14      777400.99      1062109.4      1947133        0.3230259    
Loop time of 25.2887 on 1 procs for 10000 steps with 6962 atoms

Performance: 34.165 ns/day, 0.702 hours/ns, 395.433 timesteps/s, 2.753 Matom-step/s
92.4% CPU use with 1 MPI tasks x 1 OpenMP threads

MPI task timing breakdown:
Section |  min time  |  avg time  |  max time  |%varavg| %total
---------------------------------------------------------------
Pair    | 9.3354     | 9.3354     | 9.3354     |   0.0 | 36.92
Neigh   | 4.227      | 4.227      | 4.227      |   0.0 | 16.71
Comm    | 7.1214     | 7.1214     | 7.1214     |   0.0 | 28.16
Output  | 0.334      | 0.334      | 0.334      |   0.0 |  1.32
Modify  | 1.6683     | 1.6683     | 1.6683     |   0.0 |  6.60
Other   |            | 2.603      |            |       | 10.29

Nlocal:           6962 ave        6962 max        6962 min
Histogram: 1 0 0 0 0 0 0 0 0 0
Nghost:         127000 ave      127000 max      127000 min
Histogram: 1 0 0 0 0 0 0 0 0 0
Neighs:              0 ave           0 max           0 min
Histogram: 1 0 0 0 0 0 0 0 0 0
FullNghs:       207922 ave      207922 max      207922 min
Histogram: 1 0 0 0 0 0 0 0 0 0

Total # of neighbors = 207922
Ave neighs/atom = 29.865269
Neighbor list builds = 3156
Dangerous builds = 0
WARNING: Proc sub-domain size < neighbor skin, could lead to lost atoms (src/domain.cpp:1204)
Setting up Verlet run ...
  Unit style    : metal
  Current step  : 10000
  Time step     : 0.0001
Per MPI rank memory allocation (min/avg/max) = 28.3 | 28.3 | 28.3 Mbytes
   Step           Dt            Time           Temp          TotEng         KinEng         PotEng         Press          Volume        Density    
     10000   0.0001         10             69295.871      839752.02      62351.03       777400.99      1029235.7      1947614.8      0.32294599   
     10200   0.0001         10.02          69275.425      839734.79      62332.632      777402.16      1029239.8      1947614.8      0.32294599   
     10400   0.0001         10.04          69270.112      839729.94      62327.852      777402.09      1029239        1947614.8      0.32294599   
     10600   0.0001         10.06          69270.732      839730.39      62328.41       777401.98      1029235.3      1947614.8      0.32294599   
     10800   0.0001         10.08          69280.946      839738.42      62337.6        777400.82      1029236.2      1947614.8      0.32294599   
     11000   0.0001         10.1           69286.352      839742.04      62342.465      777399.58      1029232.2      1947614.8      0.32294599   
     11200   0.0001         10.12          69272.283      839729.42      62329.806      777399.61      1029231.7      1947614.8      0.32294599   
     11400   0.0001         10.14          69283.957      839738.72      62340.309      777398.41      1029232        1947614.8      0.32294599   
     11600   0.0001         10.16          69291.801      839745.55      62347.368      777398.18      1029228.6      1947614.8      0.32294599   
     11800   0.0001         10.18          69280.822      839736.52      62337.489      777399.03      1029228.2      1947614.8      0.32294599   
     12000   0.0001         10.2           69264.035      839722.83      62322.385      777400.45      1029228.4      1947614.8      0.32294599   
     12200   0.0001         10.22          69286.912      839742.32      62342.969      777399.36      1029229.5      1947614.8      0.32294599   
     12400   0.0001         10.24          69289.155      839745.01      62344.986      777400.02      1029229.1      1947614.8      0.32294599   
     12600   0.0001         10.26          69297.372      839751.51      62352.38       777399.13      1029227.9      1947614.8      0.32294599   
     12800   0.0001         10.28          69276.308      839733.66      62333.427      777400.23      1029227        1947614.8      0.32294599   
     13000   0.0001         10.3           69289.299      839743.84      62345.116      777398.72      1029227.6      1947614.8      0.32294599   
     13200   0.0001         10.32          69273.682      839730.15      62331.064      777399.09      1029227.3      1947614.8      0.32294599   
     13400   0.0001         10.34          69280.555      839735.22      62337.249      777397.97      1029225.4      1947614.8      0.32294599   
     13600   0.0001         10.36          69251.617      839710.4       62311.211      777399.19      1029223.6      1947614.8      0.32294599   
     13800   0.0001         10.38          69268.444      839724.46      62326.351      777398.11      1029225.2      1947614.8      0.32294599   
     14000   0.0001         10.4           69282.721      839736.17      62339.198      777396.97      1029225        1947614.8      0.32294599   
     14200   0.0001         10.42          69278.376      839732.8       62335.289      777397.51      1029224.7      1947614.8      0.32294599   
     14400   0.0001         10.44          69275.391      839730.7       62332.602      777398.1       1029224.2      1947614.8      0.32294599   
     14600   0.0001         10.46          69283.369      839737.33      62339.781      777397.55      1029224.2      1947614.8      0.32294599   
     14800   0.0001         10.48          69273.156      839728.88      62330.591      777398.29      1029224.5      1947614.8      0.32294599   
     15000   0.0001         10.5           69269.323      839725.44      62327.142      777398.3       1029223.1      1947614.8      0.32294599   
     15200   0.0001         10.52          69280.811      839734.56      62337.479      777397.08      1029223.4      1947614.8      0.32294599   
     15400   0.0001         10.54          69273.15       839728.28      62330.586      777397.7       1029223.1      1947614.8      0.32294599   
     15600   0.0001         10.56          69277.798      839732.08      62334.768      777397.32      1029222.2      1947614.8      0.32294599   
     15800   0.0001         10.58          69282.533      839736.16      62339.028      777397.13      1029222.2      1947614.8      0.32294599   
     16000   0.0001         10.6           69277.136      839731.35      62334.172      777397.18      1029221.6      1947614.8      0.32294599   
     16200   0.0001         10.62          69257.774      839714.99      62316.751      777398.24      1029221.1      1947614.8      0.32294599   
     16400   0.0001         10.64          69282.502      839735.53      62339.001      777396.53      1029220.7      1947614.8      0.32294599   
     16600   0.0001         10.66          69265.443      839721.69      62323.651      777398.04      1029220        1947614.8      0.32294599   
     16800   0.0001         10.68          69280.511      839734.11      62337.21       777396.9       1029220.2      1947614.8      0.32294599   
     17000   0.0001         10.7           69268.588      839723.9       62326.481      777397.42      1029221.5      1947614.8      0.32294599   
     17200   0.0001         10.72          69270.915      839725.93      62328.575      777397.36      1029221.5      1947614.8      0.32294599   
     17400   0.0001         10.74          69281.048      839734.44      62337.693      777396.75      1029220        1947614.8      0.32294599   
     17600   0.0001         10.76          69269.702      839725.09      62327.483      777397.61      1029219.7      1947614.8      0.32294599   
     17800   0.0001         10.78          69277.598      839731.71      62334.588      777397.13      1029220.8      1947614.8      0.32294599   
     18000   0.0001         10.8           69278.683      839732.72      62335.565      777397.16      1029219.9      1947614.8      0.32294599   
     18200   0.0001         10.82          69272.315      839727.59      62329.835      777397.76      1029221.7      1947614.8      0.32294599   
     18400   0.0001         10.84          69254.293      839712.62      62313.619      777399         1029220.1      1947614.8      0.32294599   
     18600   0.0001         10.86          69249.345      839708.8       62309.166      777399.63      1029221.3      1947614.8      0.32294599   
     18800   0.0001         10.88          69273.831      839729.2       62331.199      777398         1029220.2      1947614.8      0.32294599   
     19000   0.0001         10.9           69254.595      839712.91      62313.89       777399.02      1029219.7      1947614.8      0.32294599   
     19200   0.0001         10.92          69262.998      839719.36      62321.452      777397.91      1029220.6      1947614.8      0.32294599   
     19400   0.0001         10.94          69268.081      839722.84      62326.024      777396.81      1029223.6      1947614.8      0.32294599   
     19600   0.0001         10.96          69260.322      839716.87      62319.044      777397.82      1029219.4      1947614.8      0.32294599   
     19800   0.0001         10.98          69271.595      839726.33      62329.187      777397.14      1029221.7      1947614.8      0.32294599   
     20000   0.0001         11             69256.823      839713.93      62315.895      777398.03      1029224.3      1947614.8      0.32294599   
     20200   0.0001         11.02          69265.609      839722.32      62323.8        777398.52      1029224.5      1947614.8      0.32294599   
     20400   0.0001         11.04          69271.09       839727.29      62328.733      777398.56      1029224.8      1947614.8      0.32294599   
     20600   0.0001         11.06          69265.898      839723.4       62324.061      777399.34      1029222.4      1947614.8      0.32294599   
     20800   0.0001         11.08          69263.16       839721.41      62321.597      777399.82      1029221.5      1947614.8      0.32294599   
     21000   0.0001         11.1           69274.861      839730.42      62332.125      777398.29      1029222.9      1947614.8      0.32294599   
     21200   0.0001         11.12          69248.015      839707.81      62307.97       777399.84      1029221.3      1947614.8      0.32294599   
     21400   0.0001         11.14          69263.869      839720.38      62322.235      777398.15      1029220.9      1947614.8      0.32294599   
     21600   0.0001         11.16          69250.153      839709.1       62309.894      777399.21      1029221        1947614.8      0.32294599   
     21800   0.0001         11.18          69270.681      839725.75      62328.365      777397.39      1029221.6      1947614.8      0.32294599   
     22000   0.0001         11.2           69258.285      839715.3       62317.211      777398.09      1029220.4      1947614.8      0.32294599   
     22200   0.0001         11.22          69252.13       839709.83      62311.673      777398.15      1029219.6      1947614.8      0.32294599   
     22400   0.0001         11.24          69257.786      839714.53      62316.762      777397.77      1029217.2      1947614.8      0.32294599   
     22600   0.0001         11.26          69258.356      839714.73      62317.275      777397.46      1029218.8      1947614.8      0.32294599   
     22800   0.0001         11.28          69254.753      839711.71      62314.032      777397.68      1029218.9      1947614.8      0.32294599   
     23000   0.0001         11.3           69269.553      839723.88      62327.349      777396.53      1029217.7      1947614.8      0.32294599   
     23200   0.0001         11.32          69253.732      839710.95      62313.114      777397.84      1029218.3      1947614.8      0.32294599   
     23400   0.0001         11.34          69233.685      839694.26      62295.076      777399.18      1029218.5      1947614.8      0.32294599   
     23600   0.0001         11.36          69251.637      839709.15      62311.229      777397.92      1029219.8      1947614.8      0.32294599   
     23800   0.0001         11.38          69239.63       839699.99      62300.426      777399.56      1029217.2      1947614.8      0.32294599   
     24000   0.0001         11.4           69233.542      839695.28      62294.948      777400.33      1029215        1947614.8      0.32294599   
     24200   0.0001         11.42          69242.796      839702.57      62303.274      777399.3       1029218.4      1947614.8      0.32294599   
     24400   0.0001         11.44          69216.799      839680.09      62279.882      777400.21      1029216.1      1947614.8      0.32294599   
     24600   0.0001         11.46          69230.838      839691.68      62292.514      777399.17      1029219.1      1947614.8      0.32294599   
     24800   0.0001         11.48          69244.982      839703.1       62305.241      777397.86      1029220.9      1947614.8      0.32294599   
     25000   0.0001         11.5           69250.522      839707.68      62310.226      777397.46      1029218.1      1947614.8      0.32294599   
     25200   0.0001         11.52          69225.269      839686.74      62287.503      777399.24      1029217        1947614.8      0.32294599   
     25400   0.0001         11.54          69237.365      839697.12      62298.388      777398.73      1029220.7      1947614.8      0.32294599   
     25600   0.0001         11.56          69244.333      839703.7       62304.657      777399.05      1029217.1      1947614.8      0.32294599   
     25800   0.0001         11.58          69233.389      839694.56      62294.81       777399.75      1029218.2      1947614.8      0.32294599   
     26000   0.0001         11.6           69240.585      839700.5       62301.285      777399.21      1029219.5      1947614.8      0.32294599   
     26200   0.0001         11.62          69245.113      839704.38      62305.359      777399.03      1029218.5      1947614.8      0.32294599   
     26400   0.0001         11.64          69241.071      839701.14      62301.722      777399.42      1029216.4      1947614.8      0.32294599   
     26600   0.0001         11.66          69233.011      839694.11      62294.47       777399.65      1029215.9      1947614.8      0.32294599   
     26800   0.0001         11.68          69225.262      839687.4       62287.498      777399.9       1029216.9      1947614.8      0.32294599   
     27000   0.0001         11.7           69230.181      839691.67      62291.923      777399.74      1029216.8      1947614.8      0.32294599   
     27200   0.0001         11.72          69243.914      839702.97      62304.28       777398.69      1029216.5      1947614.8      0.32294599   
     27400   0.0001         11.74          69237.659      839697.36      62298.651      777398.7       1029213.8      1947614.8      0.32294599   
     27600   0.0001         11.76          69245.933      839704         62306.096      777397.91      1029215.7      1947614.8      0.32294599   
     27800   0.0001         11.78          69220.659      839683.04      62283.356      777399.68      1029213.3      1947614.8      0.32294599   
     28000   0.0001         11.8           69234.175      839694.56      62295.517      777399.04      1029210.8      1947614.8      0.32294599   
     28200   0.0001         11.82          69241.748      839700.8       62302.331      777398.47      1029214        1947614.8      0.32294599   
     28400   0.0001         11.84          69229.328      839689.42      62291.156      777398.26      1029215.5      1947614.8      0.32294599   
     28600   0.0001         11.86          69218.66       839680.51      62281.557      777398.95      1029212.3      1947614.8      0.32294599   
     28800   0.0001         11.88          69222.448      839683.72      62284.965      777398.76      1029210.6      1947614.8      0.32294599   
     29000   0.0001         11.9           69225.933      839686.51      62288.101      777398.41      1029214.2      1947614.8      0.32294599   
     29200   0.0001         11.92          69203.208      839667.59      62267.653      777399.94      1029211.2      1947614.8      0.32294599   
     29400   0.0001         11.94          69225.007      839685.98      62287.268      777398.72      1029214.8      1947614.8      0.32294599   
     29600   0.0001         11.96          69224.235      839684.9       62286.573      777398.33      1029213.2      1947614.8      0.32294599   
     29800   0.0001         11.98          69217.089      839679.13      62280.143      777398.99      1029213.1      1947614.8      0.32294599   
     30000   0.0001         12             69239.205      839698.13      62300.043      777398.09      1029210.1      1947614.8      0.32294599   
     30200   0.0001         12.02          69232.494      839692.41      62294.005      777398.4       1029212.5      1947614.8      0.32294599   
     30400   0.0001         12.04          69249.393      839706.39      62309.21       777397.18      1029212.6      1947614.8      0.32294599   
     30600   0.0001         12.06          69246.252      839703.97      62306.384      777397.59      1029209.3      1947614.8      0.32294599   
     30800   0.0001         12.08          69219.924      839681.65      62282.694      777398.96      1029208.5      1947614.8      0.32294599   
     31000   0.0001         12.1           69203.89       839667.7       62268.267      777399.43      1029207.6      1947614.8      0.32294599   
     31200   0.0001         12.12          69230.862      839690.17      62292.536      777397.63      1029208.9      1947614.8      0.32294599   
     31400   0.0001         12.14          69218.113      839679.29      62281.065      777398.22      1029208.5      1947614.8      0.32294599   
     31600   0.0001         12.16          69223.654      839683.69      62286.051      777397.63      1029206.8      1947614.8      0.32294599   
     31800   0.0001         12.18          69215.619      839677.7       62278.821      777398.88      1029206.5      1947614.8      0.32294599   
     32000   0.0001         12.2           69223.702      839684.5       62286.094      777398.41      1029207        1947614.8      0.32294599   
     32200   0.0001         12.22          69220.369      839681.14      62283.095      777398.05      1029210.7      1947614.8      0.32294599   
     32400   0.0001         12.24          69200.766      839664.13      62265.456      777398.68      1029210        1947614.8      0.32294599   
     32600   0.0001         12.26          69192.331      839657.64      62257.867      777399.77      1029206.8      1947614.8      0.32294599   
     32800   0.0001         12.28          69229.671      839689.39      62291.464      777397.93      1029207.4      1947614.8      0.32294599   
     33000   0.0001         12.3           69215.68       839677.56      62278.876      777398.68      1029209.1      1947614.8      0.32294599   
     33200   0.0001         12.32          69187.73       839653.94      62253.727      777400.22      1029203.8      1947614.8      0.32294599   
     33400   0.0001         12.34          69206.926      839669.61      62270.999      777398.62      1029207.6      1947614.8      0.32294599   
     33600   0.0001         12.36          69205.907      839669.03      62270.082      777398.95      1029207.4      1947614.8      0.32294599   
     33800   0.0001         12.38          69209.951      839672.52      62273.72       777398.8       1029207.8      1947614.8      0.32294599   
     34000   0.0001         12.4           69207.752      839670.42      62271.742      777398.68      1029205.7      1947614.8      0.32294599   
     34200   0.0001         12.42          69201.584      839665         62266.193      777398.81      1029206.3      1947614.8      0.32294599   
     34400   0.0001         12.44          69194.088      839658.31      62259.448      777398.86      1029202.5      1947614.8      0.32294599   
     34600   0.0001         12.46          69221.557      839681.3       62284.163      777397.14      1029202.2      1947614.8      0.32294599   
     34800   0.0001         12.48          69194.788      839659.36      62260.077      777399.29      1029204.6      1947614.8      0.32294599   
     35000   0.0001         12.5           69225.234      839684.48      62287.472      777397.01      1029202.3      1947614.8      0.32294599   
     35200   0.0001         12.52          69206.649      839668.82      62270.749      777398.07      1029205.7      1947614.8      0.32294599   
     35400   0.0001         12.54          69193.025      839657.53      62258.491      777399.03      1029203.8      1947614.8      0.32294599   
     35600   0.0001         12.56          69221.259      839681.43      62283.895      777397.53      1029205.1      1947614.8      0.32294599   
     35800   0.0001         12.58          69199.303      839663.49      62264.139      777399.35      1029202.3      1947614.8      0.32294599   
     36000   0.0001         12.6           69213.735      839674.74      62277.125      777397.62      1029204.1      1947614.8      0.32294599   
     36200   0.0001         12.62          69145.283      839617.07      62215.534      777401.54      1029199.9      1947614.8      0.32294599   
     36400   0.0001         12.64          69193.527      839657.28      62258.942      777398.34      1029198.8      1947614.8      0.32294599   
     36600   0.0001         12.66          69204.986      839666.86      62269.253      777397.61      1029196.9      1947614.8      0.32294599   
     36800   0.0001         12.68          69169.711      839637.15      62237.514      777399.64      1029194.7      1947614.8      0.32294599   
     37000   0.0001         12.7           69187.277      839650.96      62253.319      777397.64      1029197.6      1947614.8      0.32294599   
     37200   0.0001         12.72          69190.897      839654         62256.577      777397.42      1029198.1      1947614.8      0.32294599   
     37400   0.0001         12.74          69193.689      839657.08      62259.089      777397.99      1029200.2      1947614.8      0.32294599   
     37600   0.0001         12.76          69212.256      839673.09      62275.795      777397.29      1029200.3      1947614.8      0.32294599   
     37800   0.0001         12.78          69208.029      839670.33      62271.991      777398.34      1029198        1947614.8      0.32294599   
     38000   0.0001         12.8           69206.087      839668.8       62270.244      777398.56      1029199.4      1947614.8      0.32294599   
     38200   0.0001         12.82          69193.929      839658.21      62259.304      777398.9       1029198.8      1947614.8      0.32294599   
     38400   0.0001         12.84          69195.679      839660.05      62260.879      777399.17      1029201.2      1947614.8      0.32294599   
     38600   0.0001         12.86          69215.038      839676.3       62278.298      777398         1029199.3      1947614.8      0.32294599   
     38800   0.0001         12.88          69169.093      839637.22      62236.957      777400.26      1029198.5      1947614.8      0.32294599   
     39000   0.0001         12.9           69181.954      839647.4       62248.529      777398.87      1029197.3      1947614.8      0.32294599   
     39200   0.0001         12.92          69182.955      839648.42      62249.43       777398.99      1029196.8      1947614.8      0.32294599   
     39400   0.0001         12.94          69184.013      839649.02      62250.383      777398.64      1029194.1      1947614.8      0.32294599   
     39600   0.0001         12.96          69190.108      839654.15      62255.866      777398.28      1029196.3      1947614.8      0.32294599   
     39800   0.0001         12.98          69181.02       839646.15      62247.689      777398.46      1029196.4      1947614.8      0.32294599   
     40000   0.0001         13             69179.063      839645.37      62245.928      777399.44      1029192.9      1947614.8      0.32294599   
     40200   0.0001         13.02          69207.682      839670.01      62271.679      777398.33      1029191.8      1947614.8      0.32294599   
     40400   0.0001         13.04          69200.108      839663.32      62264.864      777398.46      1029194.2      1947614.8      0.32294599   
     40600   0.0001         13.06          69188.517      839651.98      62254.435      777397.55      1029193.5      1947614.8      0.32294599   
     40800   0.0001         13.08          69173.624      839638.69      62241.034      777397.66      1029192.2      1947614.8      0.32294599   
     41000   0.0001         13.1           69156.311      839623.73      62225.456      777398.27      1029193.5      1947614.8      0.32294599   
     41200   0.0001         13.12          69178.707      839643.25      62245.608      777397.64      1029191.8      1947614.8      0.32294599   
     41400   0.0001         13.14          69185.255      839650.43      62251.499      777398.94      1029191.2      1947614.8      0.32294599   
     41600   0.0001         13.16          69179.298      839645.31      62246.14       777399.17      1029192.1      1947614.8      0.32294599   
     41800   0.0001         13.18          69154.711      839625.26      62224.017      777401.24      1029193.4      1947614.8      0.32294599   
     42000   0.0001         13.2           69158.253      839627.77      62227.204      777400.57      1029191.9      1947614.8      0.32294599   
     42200   0.0001         13.22          69143.573      839614.97      62213.995      777400.97      1029195.3      1947614.8      0.32294599   
     42400   0.0001         13.24          69175.908      839641.88      62243.09       777398.79      1029193.6      1947614.8      0.32294599   
     42600   0.0001         13.26          69176.94       839643.18      62244.018      777399.16      1029190.5      1947614.8      0.32294599   
     42800   0.0001         13.28          69188.991      839652.29      62254.861      777397.43      1029192.1      1947614.8      0.32294599   
     43000   0.0001         13.3           69161.012      839628.43      62229.686      777398.74      1029189.9      1947614.8      0.32294599   
     43200   0.0001         13.32          69180.516      839644.35      62247.236      777397.12      1029190.1      1947614.8      0.32294599   
     43400   0.0001         13.34          69167.633      839633.29      62235.644      777397.65      1029186.3      1947614.8      0.32294599   
     43600   0.0001         13.36          69168.155      839634.07      62236.113      777397.96      1029188.9      1947614.8      0.32294599   
     43800   0.0001         13.38          69168.717      839635.2       62236.619      777398.58      1029185.4      1947614.8      0.32294599   
     44000   0.0001         13.4           69160.091      839627.63      62228.858      777398.78      1029189.5      1947614.8      0.32294599   
     44200   0.0001         13.42          69151.91       839620.59      62221.496      777399.09      1029188.5      1947614.8      0.32294599   
     44400   0.0001         13.44          69163.424      839630.46      62231.857      777398.6       1029191        1947614.8      0.32294599   
     44600   0.0001         13.46          69159.765      839627.69      62228.565      777399.12      1029188.3      1947614.8      0.32294599   
     44800   0.0001         13.48          69175.997      839641.15      62243.169      777397.98      1029188.6      1947614.8      0.32294599   
     45000   0.0001         13.5           69157.783      839626.28      62226.781      777399.5       1029187.9      1947614.8      0.32294599   
     45200   0.0001         13.52          69175.159      839640         62242.415      777397.59      1029190.1      1947614.8      0.32294599   
     45400   0.0001         13.54          69150.281      839619.5       62220.03       777399.47      1029185.4      1947614.8      0.32294599   
     45600   0.0001         13.56          69152.912      839621.5       62222.398      777399.1       1029185        1947614.8      0.32294599   
     45800   0.0001         13.58          69131.936      839604.25      62203.524      777400.72      1029187.4      1947614.8      0.32294599   
     46000   0.0001         13.6           69184.292      839648.59      62250.633      777397.95      1029187.5      1947614.8      0.32294599   
     46200   0.0001         13.62          69175.577      839641.63      62242.792      777398.84      1029186.6      1947614.8      0.32294599   
     46400   0.0001         13.64          69157.75       839626.45      62226.751      777399.7       1029185.9      1947614.8      0.32294599   
     46600   0.0001         13.66          69160.306      839628.07      62229.051      777399.02      1029185.1      1947614.8      0.32294599   
     46800   0.0001         13.68          69150.121      839619.53      62219.887      777399.64      1029187.7      1947614.8      0.32294599   
     47000   0.0001         13.7           69142.79       839612.58      62213.291      777399.29      1029186.9      1947614.8      0.32294599   
     47200   0.0001         13.72          69147.205      839616.73      62217.263      777399.46      1029186.9      1947614.8      0.32294599   
     47400   0.0001         13.74          69164.963      839632.55      62233.242      777399.31      1029183.5      1947614.8      0.32294599   
     47600   0.0001         13.76          69167.899      839635.04      62235.884      777399.16      1029186.1      1947614.8      0.32294599   
     47800   0.0001         13.78          69146.609      839616.45      62216.726      777399.73      1029185.9      1947614.8      0.32294599   
     48000   0.0001         13.8           69143.518      839614.16      62213.945      777400.21      1029184.2      1947614.8      0.32294599   
     48200   0.0001         13.82          69157.475      839626.04      62226.504      777399.54      1029183.1      1947614.8      0.32294599   
     48400   0.0001         13.84          69140.13       839610.64      62210.897      777399.74      1029181.9      1947614.8      0.32294599   
     48600   0.0001         13.86          69139.192      839609.5       62210.053      777399.44      1029182.9      1947614.8      0.32294599   
     48800   0.0001         13.88          69146.047      839615.71      62216.221      777399.49      1029179.4      1947614.8      0.32294599   
     49000   0.0001         13.9           69169.075      839634.72      62236.941      777397.78      1029182.5      1947614.8      0.32294599   
     49200   0.0001         13.92          69169.856      839634.91      62237.644      777397.26      1029181.3      1947614.8      0.32294599   
     49400   0.0001         13.94          69152.581      839620.65      62222.101      777398.55      1029178.1      1947614.8      0.32294599   
     49600   0.0001         13.96          69166.245      839631.45      62234.395      777397.06      1029178.8      1947614.8      0.32294599   
     49800   0.0001         13.98          69139.179      839608.83      62210.042      777398.78      1029177.8      1947614.8      0.32294599   
     50000   0.0001         14             69155.225      839622.39      62224.48       777397.91      1029179.6      1947614.8      0.32294599   
     50200   0.0001         14.02          69163.696      839629.2       62232.101      777397.1       1029179        1947614.8      0.32294599   
     50400   0.0001         14.04          69150.81       839618.97      62220.507      777398.46      1029178.6      1947614.8      0.32294599   
     50600   0.0001         14.06          69147.314      839616.34      62217.361      777398.98      1029177.4      1947614.8      0.32294599   
     50800   0.0001         14.08          69149.094      839618.49      62218.963      777399.53      1029178.6      1947614.8      0.32294599   
     51000   0.0001         14.1           69160.61       839628.23      62229.324      777398.91      1029177.7      1947614.8      0.32294599   
     51200   0.0001         14.12          69130.134      839602.1       62201.903      777400.19      1029178.2      1947614.8      0.32294599   
     51400   0.0001         14.14          69145.733      839614.25      62215.939      777398.31      1029178.2      1947614.8      0.32294599   
     51600   0.0001         14.16          69149.463      839616.97      62219.295      777397.67      1029178.8      1947614.8      0.32294599   
     51800   0.0001         14.18          69133.961      839604.17      62205.346      777398.82      1029177.5      1947614.8      0.32294599   
     52000   0.0001         14.2           69152.561      839619.42      62222.083      777397.33      1029176.7      1947614.8      0.32294599   
     52200   0.0001         14.22          69126.681      839597.53      62198.796      777398.74      1029178.7      1947614.8      0.32294599   
     52400   0.0001         14.24          69141.333      839610.58      62211.98       777398.6       1029178.2      1947614.8      0.32294599   
     52600   0.0001         14.26          69165.728      839631.1       62233.93       777397.17      1029176.5      1947614.8      0.32294599   
     52800   0.0001         14.28          69128.119      839599.63      62200.09       777399.54      1029174.4      1947614.8      0.32294599   
     53000   0.0001         14.3           69118.915      839591.59      62191.808      777399.78      1029176.2      1947614.8      0.32294599   
     53200   0.0001         14.32          69132.385      839603.14      62203.928      777399.22      1029176.5      1947614.8      0.32294599   
     53400   0.0001         14.34          69138.631      839608.91      62209.548      777399.36      1029177.9      1947614.8      0.32294599   
     53600   0.0001         14.36          69148.703      839617.51      62218.611      777398.9       1029176.8      1947614.8      0.32294599   
     53800   0.0001         14.38          69160.151      839627.41      62228.912      777398.5       1029177.1      1947614.8      0.32294599   
     54000   0.0001         14.4           69133.47       839604.69      62204.905      777399.78      1029173.4      1947614.8      0.32294599   
     54200   0.0001         14.42          69122.049      839594.79      62194.628      777400.16      1029176.7      1947614.8      0.32294599   
     54400   0.0001         14.44          69126.912      839598.57      62199.004      777399.57      1029174.6      1947614.8      0.32294599   
     54600   0.0001         14.46          69116.781      839589.82      62189.888      777399.93      1029176.1      1947614.8      0.32294599   
     54800   0.0001         14.48          69124.103      839595.88      62196.477      777399.4       1029174.2      1947614.8      0.32294599   
     55000   0.0001         14.5           69138.72       839607.76      62209.629      777398.13      1029172.4      1947614.8      0.32294599   
     55200   0.0001         14.52          69122.647      839594.22      62195.167      777399.05      1029171.6      1947614.8      0.32294599   
     55400   0.0001         14.54          69152.708      839619.09      62222.215      777396.88      1029171.2      1947614.8      0.32294599   
     55600   0.0001         14.56          69127.678      839598.13      62199.693      777398.43      1029169.8      1947614.8      0.32294599   
     55800   0.0001         14.58          69124.135      839594.36      62196.505      777397.85      1029168.6      1947614.8      0.32294599   
     56000   0.0001         14.6           69120.753      839592.1       62193.462      777398.64      1029170.2      1947614.8      0.32294599   
     56200   0.0001         14.62          69139.289      839608.23      62210.141      777398.09      1029168.5      1947614.8      0.32294599   
     56400   0.0001         14.64          69132.595      839603.05      62204.117      777398.94      1029171.1      1947614.8      0.32294599   
     56600   0.0001         14.66          69138.221      839607.83      62209.18       777398.65      1029168.2      1947614.8      0.32294599   
     56800   0.0001         14.68          69121.542      839593.82      62194.172      777399.65      1029167.4      1947614.8      0.32294599   
     57000   0.0001         14.7           69118.516      839590.55      62191.449      777399.1       1029166.1      1947614.8      0.32294599   
     57200   0.0001         14.72          69119.684      839590.47      62192.5        777397.97      1029168        1947614.8      0.32294599   
     57400   0.0001         14.74          69120.621      839591.1       62193.343      777397.76      1029169.3      1947614.8      0.32294599   
     57600   0.0001         14.76          69129.577      839598.75      62201.401      777397.34      1029167        1947614.8      0.32294599   
     57800   0.0001         14.78          69127.512      839597.31      62199.543      777397.77      1029167        1947614.8      0.32294599   
     58000   0.0001         14.8           69121.316      839592.56      62193.969      777398.59      1029166.5      1947614.8      0.32294599   
     58200   0.0001         14.82          69114.614      839587.48      62187.938      777399.54      1029166.3      1947614.8      0.32294599   
     58400   0.0001         14.84          69129.785      839600.61      62201.589      777399.02      1029168.7      1947614.8      0.32294599   
     58600   0.0001         14.86          69139.184      839608.71      62210.046      777398.66      1029169.3      1947614.8      0.32294599   
     58800   0.0001         14.88          69131.385      839601.11      62203.029      777398.08      1029165.9      1947614.8      0.32294599   
     59000   0.0001         14.9           69067.106      839545.98      62145.191      777400.79      1029163.9      1947614.8      0.32294599   
     59200   0.0001         14.92          69098.933      839571.9       62173.829      777398.07      1029169.7      1947614.8      0.32294599   
     59400   0.0001         14.94          69105.898      839577.28      62180.096      777397.19      1029167.3      1947614.8      0.32294599   
     59600   0.0001         14.96          69106.453      839577.94      62180.596      777397.34      1029169        1947614.8      0.32294599   
     59800   0.0001         14.98          69120.812      839591.06      62193.516      777397.54      1029163.5      1947614.8      0.32294599   
     60000   0.0001         15             69118.932      839590.39      62191.823      777398.57      1029164.9      1947614.8      0.32294599   
Loop time of 66.6618 on 1 procs for 50000 steps with 6962 atoms

Performance: 6.480 ns/day, 3.703 hours/ns, 750.055 timesteps/s, 5.222 Matom-step/s
99.3% CPU use with 1 MPI tasks x 1 OpenMP threads

MPI task timing breakdown:
Section |  min time  |  avg time  |  max time  |%varavg| %total
---------------------------------------------------------------
Pair    | 38.669     | 38.669     | 38.669     |   0.0 | 58.01
Neigh   | 0.26066    | 0.26066    | 0.26066    |   0.0 |  0.39
Comm    | 17.265     | 17.265     | 17.265     |   0.0 | 25.90
Output  | 1.6294     | 1.6294     | 1.6294     |   0.0 |  2.44
Modify  | 6.9221     | 6.9221     | 6.9221     |   0.0 | 10.38
Other   |            | 1.916      |            |       |  2.87

Nlocal:           6962 ave        6962 max        6962 min
Histogram: 1 0 0 0 0 0 0 0 0 0
Nghost:         127090 ave      127090 max      127090 min
Histogram: 1 0 0 0 0 0 0 0 0 0
Neighs:              0 ave           0 max           0 min
Histogram: 1 0 0 0 0 0 0 0 0 0
FullNghs:       211070 ave      211070 max      211070 min
Histogram: 1 0 0 0 0 0 0 0 0 0

Total # of neighbors = 211070
Ave neighs/atom = 30.317438
Neighbor list builds = 358
Dangerous builds = 0
System init for write_restart ...
WARNING: Proc sub-domain size < neighbor skin, could lead to lost atoms (src/domain.cpp:1204)
Total wall time: 0:01:43
