
Lmod is automatically replacing "gcc/12.3" with "intel/2023.2.1".


Due to MODULEPATH changes, the following have been reloaded:
  1) aocl-blas/5.1       3) cuda/12.6           5) openmpi/4.1.5
  2) aocl-lapack/5.1     4) flexiblas/3.3.1

LAMMPS (22 Jul 2025 - Development - patch_22Jul2025-72-g8b7fdf9ad3)
KOKKOS mode with Kokkos version 4.6.2 is enabled
  will use up to 1 GPU(s) per node
  using 1 OpenMP thread(s) per MPI task
WARNING: Detected non-ASCII characters in input. Will try to continue by replacing with ASCII equivalents where known. (src/input.cpp:478)
Created orthogonal box = (-150 -0.5 0) to (150 0.5 840)
  1 by 1 by 1 MPI processor grid
Lattice spacing in x,y,z = 2.866 2.866 2.866
Created 6615 atoms
  using lattice units in orthogonal box = (-150 -0.5 -0.084) to (150 0.5 840.084)
  create_atoms CPU = 0.129 seconds
Lattice spacing in x,y,z = 4.05 4.05 4.05
Created 347 atoms
  using lattice units in orthogonal box = (-150 -0.5 -0.084) to (150 0.5 840.084)
  create_atoms CPU = 0.001 seconds
347 atoms in group particle_group
6615 atoms in group substrate_group
3360 atoms in group frozen_atoms
2205 atoms in group thermostat_atoms
1050 atoms in group mobile_atoms
1397 atoms in group nve_atoms
8 atoms in group center_atoms
1050 atoms in group mobile_atoms
2201 atoms in group thermostat_atoms
1397 atoms in group nve_atoms
ERROR: Unrecognized pair style 'eam/fs' is part of the MANYBODY package which is not enabled in this LAMMPS binary.
For more information see https://docs.lammps.org/err0010 (src/force.cpp:275)
Last input line: pair_style hybrid/overlay eam/fs lj/cut 2.5
