
Lmod is automatically replacing "gcc/12.3" with "intel/2023.2.1".


Due to MODULEPATH changes, the following have been reloaded:
  1) aocl-blas/5.1     2) aocl-lapack/5.1     3) flexiblas/3.3.1     4) openmpi/4.1.5

LAMMPS (22 Jul 2025 - Development - patch_22Jul2025-72-g8b7fdf9ad3)
KOKKOS mode with Kokkos version 4.6.2 is enabled
  will use up to 1 GPU(s) per node
  using 1 OpenMP thread(s) per MPI task
WARNING: Detected non-ASCII characters in input. Will try to continue by replacing with ASCII equivalents where known. (src/input.cpp:478)
Created orthogonal box = (-50 -57.32 0) to (50 57.32 130)
  1 by 1 by 1 MPI processor grid
Lattice spacing in x,y,z = 2.866 2.866 2.866
Created 57960 atoms
  using lattice units in orthogonal box = (-50 -57.32 0) to (50 57.32 130)
  create_atoms CPU = 0.152 seconds
Lattice spacing in x,y,z = 4.05 4.05 4.05
Created 249 atoms
  using lattice units in orthogonal box = (-50 -57.32 0) to (50 57.32 130)
  create_atoms CPU = 0.001 seconds
249 atoms in group particle_group
57960 atoms in group substrate_group
19320 atoms in group frozen_atoms
9680 atoms in group thermostat_atoms
28960 atoms in group mobile_atoms
29209 atoms in group nve_atoms
Reading eam/fs potential file /home/wuwen123/comp/yao/lammps/potentials/AlFe_mm.eam.fs with DATE: 2007-06-11
Neighbor list info ...
  update: every = 1 steps, delay = 0 steps, check = yes
  max neighbors/atom: 2000, page size: 100000
  master list distance cutoff = 12
  ghost atom cutoff = 12
  binsize = 12, bins = 9 10 11
  2 neighbor lists, perpetual/occasional/extra = 2 0 0
  (1) pair eam/fs, perpetual
      attributes: full, newton off, kokkos_device
      pair build: full/bin/kk/device
      stencil: full/bin/3d
      bin: kk/device
  (2) pair lj/cut, perpetual, skip from (1)
      attributes: full, newton off, kokkos_device
      pair build: skip/kk/device
      stencil: none
      bin: none
Setting up Verlet run ...
  Unit style    : metal
  Current step  : 0
  Time step     : 0.0001
Per MPI rank memory allocation (min/avg/max) = 17.51 | 17.51 | 17.51 Mbytes
   Step          Time           Temp          PotEng         KinEng         TotEng         Press     
         0   0              150.4095      -229780.73      1131.6773     -228649.06     -10699.786    
       200   0.02           80.531419     -229256.75      605.91634     -228650.84     -10812.421    
       400   0.04           47.511874     -228927.04      357.47813     -228569.57     -11622.546    
       600   0.06           88.310421     -229096.37      664.44535     -228431.92     -13283.465    
       800   0.08           91.785576     -229029.24      690.59234     -228338.65     -14245.625    
      1000   0.1            108.48866     -229057.96      816.26588     -228241.69     -14838.821    
      1200   0.12           114.92453     -229016.07      864.68922     -228151.38     -15557.766    
      1400   0.14           101.49539     -228841.78      763.6487      -228078.13     -16290.897    
      1600   0.16           113.81109     -228843.3       856.31175     -227986.99     -17408.688    
      1800   0.18           116.37065     -228789.08      875.56984     -227913.51     -18209.963    
      2000   0.2            116.78567     -228738.19      878.69237     -227859.49     -18613.02     
      2200   0.22           131.3401      -228784.8       988.19956     -227796.6      -19142.249    
      2400   0.24           132.4071      -228728.26      996.22765     -227732.03     -19782.895    
      2600   0.26           132.61342     -228654.33      997.78        -227656.55     -20558.642    
      2800   0.28           139.0443      -228619.09      1046.1658     -227572.92     -21440.305    
      3000   0.3            141.70041     -228567.93      1066.1503     -227501.78     -22177.3      
      3200   0.32           146.8041      -228543.04      1104.5503     -227438.49     -22759.415    
      3400   0.34           152.91772     -228523.66      1150.549      -227373.11     -23392.748    
      3600   0.36           156.46975     -228479.22      1177.2744     -227301.94     -24106.3      
      3800   0.38           159.52262     -228425.37      1200.2441     -227225.12     -24879.744    
      4000   0.4            163.51134     -228380.16      1230.2551     -227149.91     -25651.043    
      4200   0.42           169.45643     -228355.24      1274.9859     -227080.25     -26379.793    
      4400   0.44           174.44115     -228325.61      1312.4907     -227013.12     -27011.833    
      4600   0.46           179.76248     -228294.17      1352.5283     -226941.64     -27689.796    
      4800   0.48           184.76776     -228253.73      1390.1879     -226863.55     -28436.962    
      5000   0.5            189.08614     -228204.3       1422.6793     -226781.62     -29210.986    
      5200   0.52           195.12211     -228167.3       1468.0938     -226699.21     -30013.91     
      5400   0.54           200.77909     -228129.03      1510.6567     -226618.37     -30765.404    
      5600   0.56           207.23517     -228095.39      1559.2321     -226536.16     -31508.75     
      5800   0.58           214.69085     -228065.14      1615.3285     -226449.82     -32275.636    
      6000   0.6            220.09579     -228017.1       1655.9951     -226361.1      -33042.2      
      6200   0.62           224.57906     -227961.61      1689.7271     -226271.88     -33797.847    
      6400   0.64           230.60704     -227918.55      1735.0815     -226183.46     -34558.578    
      6600   0.66           235.54301     -227871.99      1772.2196     -226099.77     -35279.95     
      6800   0.68           238.35651     -227815.3       1793.3883     -226021.91     -35933.375    
      7000   0.7            239.93291     -227753.33      1805.2491     -225948.08     -36533.225    
      7200   0.72           239.29491     -227678.37      1800.4488     -225877.93     -37067.028    
      7400   0.74           236.62968     -227591.28      1780.3957     -225810.88     -37523.25     
      7600   0.76           234.08837     -227506.9       1761.2749     -225745.63     -37924.422    
      7800   0.78           232.44221     -227431.11      1748.8892     -225682.22     -38272.817    
      8000   0.8            230.57405     -227356.32      1734.8333     -225621.49     -38544.537    
      8200   0.82           228.23829     -227280.18      1717.2591     -225562.92     -38730.072    
      8400   0.84           226.50907     -227209.25      1704.2485     -225505.01     -38870.216    
      8600   0.86           225.35899     -227142.88      1695.5953     -225447.29     -39016.54     
      8800   0.88           224.48761     -227079.06      1689.0391     -225390.02     -39165.869    
      9000   0.9            224.45833     -227021.56      1688.8188     -225332.74     -39346.103    
      9200   0.92           224.62724     -226965.18      1690.0896     -225275.09     -39580.469    
      9400   0.94           224.0093      -226902.58      1685.4402     -225217.14     -39832.083    
      9600   0.96           223.17841     -226837.3       1679.1887     -225158.11     -40099.061    
      9800   0.98           223.3456      -226777.09      1680.4466     -225096.65     -40409.285    
     10000   1              223.282       -226714.18      1679.9681     -225034.21     -40712.752    
     10200   1.02           221.24689     -226637.51      1664.656      -224972.86     -40951.901    
     10400   1.04           219.29236     -226561         1649.9501     -224911.05     -41184.327    
     10600   1.06           218.70462     -226493.42      1645.528      -224847.89     -41459.599    
     10800   1.08           218.3218      -226427.06      1642.6477     -224784.41     -41752.221    
     11000   1.1            218.3896      -226363.7       1643.1578     -224720.54     -42100.758    
     11200   1.12           218.54434     -226301.27      1644.322      -224656.95     -42489.549    
     11400   1.14           217.07686     -226228.27      1633.2808     -224594.99     -42872.255    
     11600   1.16           215.18853     -226152.74      1619.073      -224533.66     -43245.696    
     11800   1.18           214.22839     -226083.51      1611.8489     -224471.66     -43574.113    
     12000   1.2            213.14944     -226012.8       1603.7309     -224409.06     -43856.153    
     12200   1.22           212.78141     -225945.82      1600.9619     -224344.86     -44135.423    
     12400   1.24           212.86904     -225880.72      1601.6212     -224279.1      -44457.081    
     12600   1.26           211.31253     -225803.59      1589.9101     -224213.68     -44768.322    
     12800   1.28           208.78054     -225719.97      1570.8594     -224149.11     -45066.799    
     13000   1.3            207.10257     -225643.41      1558.2345     -224085.17     -45383.536    
     13200   1.32           206.34296     -225575.21      1552.5192     -224022.69     -45695.127    
     13400   1.34           205.33493     -225508.01      1544.9348     -223963.08     -45965.684    
     13600   1.36           204.08117     -225442.05      1535.5015     -223906.55     -46204.711    
     13800   1.38           202.7424      -225378.22      1525.4287     -223852.79     -46416.673    
     14000   1.4            201.15443     -225315.11      1513.4808     -223801.63     -46596.346    
     14200   1.42           199.75191     -225255.48      1502.9283     -223752.55     -46761.64     
     14400   1.44           198.73236     -225200.18      1495.2572     -223704.92     -46906.316    
     14600   1.46           198.18782     -225149.56      1491.1601     -223658.4      -47025.047    
     14800   1.48           197.475       -225098.93      1485.7969     -223613.13     -47145.37     
     15000   1.5            196.05037     -225043.89      1475.078      -223568.81     -47244.592    
     15200   1.52           194.37898     -224987.61      1462.5025     -223525.11     -47331.881    
     15400   1.54           193.77037     -224940.03      1457.9233     -223482.11     -47435.598    
     15600   1.56           193.4794      -224896.62      1455.734      -223440.89     -47570.158    
     15800   1.58           192.19778     -224847.91      1446.0912     -223401.82     -47706.681    
     16000   1.6            190.47868     -224796.29      1433.1567     -223363.13     -47826.865    
     16200   1.62           189.33294     -224747.66      1424.5362     -223323.12     -47934.089    
     16400   1.64           188.27089     -224698.86      1416.5454     -223282.32     -48028.856    
     16600   1.66           186.94848     -224648.17      1406.5956     -223241.57     -48125.571    
     16800   1.68           185.8176      -224599.06      1398.0869     -223200.97     -48228.932    
     17000   1.7            184.77511     -224550.88      1390.2432     -223160.64     -48326.7      
     17200   1.72           183.67292     -224503.01      1381.9503     -223121.06     -48435.128    
     17400   1.74           182.0065      -224452.45      1369.4123     -223083.04     -48556.407    
     17600   1.76           180.41025     -224403.68      1357.4021     -223046.28     -48665.355    
     17800   1.78           179.90247     -224363.44      1353.5816     -223009.86     -48789.315    
     18000   1.8            179.66996     -224326         1351.8322     -222974.17     -48924.582    
     18200   1.82           178.6211      -224283.28      1343.9406     -222939.34     -49075.152    
     18400   1.84           177.83447     -224241.86      1338.022      -222903.84     -49239.903    
     18600   1.86           177.42651     -224202.42      1334.9525     -222867.47     -49410.285    
     18800   1.88           175.87989     -224155.11      1323.3158     -222831.79     -49564.371    
     19000   1.9            173.75311     -224104.44      1307.314      -222797.13     -49720.328    
     19200   1.92           172.20929     -224058.76      1295.6983     -222763.06     -49871.852    
     19400   1.94           171.52479     -224019.97      1290.5481     -222729.42     -50014.39     
     19600   1.96           171.11067     -223983.8       1287.4323     -222696.37     -50155.172    
     19800   1.98           169.72442     -223941.35      1277.0022     -222664.35     -50295.366    
     20000   2              167.93603     -223896.45      1263.5464     -222632.9      -50429.363    
     20200   2.02           167.13035     -223858.43      1257.4845     -222600.95     -50584.1      
     20400   2.04           166.2582      -223820.35      1250.9224     -222569.43     -50741.549    
     20600   2.06           164.50721     -223777.79      1237.7481     -222540.05     -50859.544    
     20800   2.08           162.81398     -223737.31      1225.0082     -222512.3      -50967.239    
     21000   2.1            162.19374     -223705.13      1220.3415     -222484.78     -51072.313    
     21200   2.12           161.21164     -223670.66      1212.9523     -222457.71     -51152.054    
     21400   2.14           160.48127     -223638.17      1207.457      -222430.72     -51239.933    
     21600   2.16           160.09461     -223608.8       1204.5477     -222404.25     -51347.196    
     21800   2.18           158.81561     -223574.52      1194.9246     -222379.59     -51446.223    
     22000   2.2            157.41942     -223540.7       1184.4197     -222356.28     -51542.754    
     22200   2.22           156.61313     -223511.61      1178.3532     -222333.26     -51639.309    
     22400   2.24           156.31059     -223486.14      1176.0769     -222310.06     -51721.155    
     22600   2.26           156.14688     -223461.5       1174.8451     -222286.66     -51805.006    
     22800   2.28           155.33939     -223432.24      1168.7696     -222263.47     -51877.637    
     23000   2.3            153.98498     -223399.12      1158.579      -222240.54     -51952.457    
     23200   2.32           153.36424     -223371.29      1153.9086     -222217.38     -52035.191    
     23400   2.34           153.08049     -223346.31      1151.7737     -222194.54     -52137.806    
     23600   2.36           152.40683     -223319.07      1146.7051     -222172.37     -52228.44     
     23800   2.38           152.01206     -223294.15      1143.7349     -222150.42     -52286.317    
     24000   2.4            152.12279     -223273.14      1144.568      -222128.57     -52335.505    
     24200   2.42           151.83434     -223249.72      1142.3977     -222107.32     -52418.138    
     24400   2.44           151.34638     -223225.46      1138.7263     -222086.73     -52518.353    
     24600   2.46           151.02743     -223203.13      1136.3266     -222066.8      -52578.541    
     24800   2.48           151.08576     -223184.52      1136.7654     -222047.76     -52598.889    
     25000   2.5            151.12919     -223167.28      1137.0921     -222030.19     -52646.983    
     25200   2.52           150.15859     -223144.56      1129.7894     -222014.77     -52709.49     
     25400   2.54           149.114       -223122.41      1121.9299     -222000.48     -52744.587    
     25600   2.56           149.00223     -223107.41      1121.089      -221986.32     -52743.275    
     25800   2.58           149.0003      -223094.1       1121.0745     -221973.03     -52731.725    
     26000   2.6            148.80561     -223081.01      1119.6096     -221961.41     -52713.176    
     26200   2.62           148.47942     -223068.72      1117.1554     -221951.57     -52705.21     
     26400   2.64           148.26843     -223058.25      1115.5679     -221942.68     -52667.457    
     26600   2.66           148.68755     -223052.48      1118.7213     -221933.76     -52624.851    
     26800   2.68           148.99649     -223046.61      1121.0458     -221925.57     -52606.552    
     27000   2.7            148.33351     -223034.78      1116.0575     -221918.72     -52609.252    
     27200   2.72           147.38514     -223020.71      1108.922      -221911.79     -52599.564    
     27400   2.74           147.53        -223013.79      1110.012      -221903.78     -52574.092    
     27600   2.76           148.28029     -223012.14      1115.6571     -221896.48     -52537.054    
     27800   2.78           148.4376      -223008.35      1116.8407     -221891.51     -52498.59     
     28000   2.8            148.54938     -223005.36      1117.6818     -221887.67     -52478.86     
     28200   2.82           148.88148     -223004.23      1120.1805     -221884.04     -52456.555    
     28400   2.84           148.75785     -223000.67      1119.2503     -221881.42     -52429.424    
     28600   2.86           148.97129     -223000.82      1120.8562     -221879.96     -52409.475    
     28800   2.88           149.11778     -223001.14      1121.9584     -221879.18     -52367.583    
     29000   2.9            149.42552     -223002.52      1124.2738     -221878.24     -52319.871    
     29200   2.92           150.0693      -223006.47      1129.1176     -221877.35     -52283.924    
     29400   2.94           150.41144     -223009.28      1131.6918     -221877.59     -52247.453    
     29600   2.96           150.70269     -223012.88      1133.8832     -221878.99     -52193.272    
     29800   2.98           151.62667     -223021.79      1140.8352     -221880.95     -52119.28     
     30000   3              152.49448     -223031.1       1147.3646     -221883.74     -52033.082    
     30200   3.02           152.99005     -223038.61      1151.0932     -221887.52     -51967.986    
     30400   3.04           153.94467     -223050.03      1158.2758     -221891.76     -51920.012    
     30600   3.06           154.72143     -223060.41      1164.1201     -221896.29     -51844.53     
     30800   3.08           155.26455     -223068.99      1168.2065     -221900.78     -51759.276    
     31000   3.1            156.25751     -223080.59      1175.6775     -221904.92     -51697.498    
     31200   3.12           157.27962     -223092.59      1183.3678     -221909.22     -51650.174    
     31400   3.14           158.04668     -223103.48      1189.1392     -221914.34     -51577.751    
     31600   3.16           158.79989     -223115.68      1194.8063     -221920.88     -51499.558    
     31800   3.18           159.48508     -223129.4       1199.9617     -221929.44     -51428.048    
     32000   3.2            159.84929     -223142.47      1202.702      -221939.76     -51361.98     
     32200   3.22           160.80016     -223160.36      1209.8563     -221950.5      -51281.386    
     32400   3.24           161.841       -223179.3       1217.6876     -221961.62     -51155.271    
     32600   3.26           162.92001     -223199.83      1225.806      -221974.02     -51024.303    
     32800   3.28           163.63245     -223219.22      1231.1664     -221988.05     -50920.316    
     33000   3.3            163.90341     -223235.63      1233.2051     -222002.43     -50814.955    
     33200   3.32           164.43736     -223253.34      1237.2225     -222016.12     -50720.635    
     33400   3.34           165.412       -223274.02      1244.5557     -222029.47     -50628.477    
     33600   3.36           166.5174      -223296.18      1252.8727     -222043.31     -50539.773    
     33800   3.38           167.11227     -223315.53      1257.3485     -222058.18     -50436.1      
     34000   3.4            167.46046     -223333.85      1259.9682     -222073.88     -50313.411    
     34200   3.42           168.42508     -223357.19      1267.226      -222089.97     -50199.304    
     34400   3.44           169.26378     -223380.61      1273.5363     -222107.08     -50110.448    
     34600   3.46           169.15518     -223398.79      1272.7192     -222126.07     -50010.242    
     34800   3.48           169.6341      -223422.38      1276.3227     -222146.05     -49877.199    
     35000   3.5            171.29554     -223455.07      1288.8233     -222166.25     -49728.855    
     35200   3.52           172.53043     -223485.44      1298.1145     -222187.32     -49570.721    
     35400   3.54           173.23907     -223512.56      1303.4464     -222209.11     -49431.459    
     35600   3.56           173.73585     -223538.4       1307.1841     -222231.22     -49329.517    
     35800   3.58           174.07544     -223563.49      1309.7392     -222253.75     -49213.513    
     36000   3.6            175.24453     -223594.61      1318.5354     -222276.08     -49077.739    
     36200   3.62           177.7041      -223634.93      1337.0411     -222297.89     -48952.533    
     36400   3.64           179.25338     -223669.11      1348.6979     -222320.41     -48824.811    
     36600   3.66           179.80397     -223696.38      1352.8405     -222343.54     -48674.84     
     36800   3.68           180.65863     -223725.33      1359.2709     -222366.06     -48549.867    
     37000   3.7            182.00144     -223757.22      1369.3742     -222387.84     -48420.227    
     37200   3.72           183.28203     -223788.84      1379.0093     -222409.83     -48313.194    
     37400   3.74           184.49781     -223820.7       1388.1568     -222432.55     -48224.247    
     37600   3.76           185.62396     -223852.62      1396.63       -222455.99     -48124.607    
     37800   3.78           187.06013     -223887.29      1407.4356     -222479.85     -48010.823    
     38000   3.8            188.7455      -223924.66      1420.1163     -222504.54     -47897.279    
     38200   3.82           190.17104     -223961.53      1430.8421     -222530.69     -47768.989    
     38400   3.84           190.76102     -223993.06      1435.2811     -222557.78     -47618.517    
     38600   3.86           191.94749     -224028.03      1444.208      -222583.82     -47474.578    
     38800   3.88           194.0587      -224069.27      1460.0927     -222609.18     -47359.163    
     39000   3.9            195.42457     -224106.46      1470.3695     -222636.09     -47240.393    
     39200   3.92           195.80186     -224138.16      1473.2082     -222664.95     -47121.017    
     39400   3.94           197.05625     -224177.06      1482.6462     -222694.41     -46988.287    
     39600   3.96           198.7203      -224219.78      1495.1665     -222724.62     -46856.134    
     39800   3.98           199.6076      -224258.57      1501.8425     -222756.73     -46726.953    
     40000   4              200.59998     -224299.25      1509.3092     -222789.94     -46607.419    
     40200   4.02           202.50403     -224346.29      1523.6351     -222822.65     -46491.247    
     40400   4.04           203.68815     -224387.96      1532.5444     -222855.42     -46369.825    
     40600   4.06           203.98987     -224424.22      1534.8146     -222889.4      -46243.16     
     40800   4.08           204.97642     -224466.08      1542.2374     -222923.84     -46119.579    
     41000   4.1            206.72166     -224513.28      1555.3685     -222957.91     -45999.538    
     41200   4.12           208.35881     -224558.95      1567.6864     -222991.26     -45890.331    
     41400   4.14           209.31236     -224599.81      1574.8609     -223024.95     -45778.621    
     41600   4.16           209.28215     -224634.28      1574.6336     -223059.65     -45662.124    
     41800   4.18           209.72225     -224671.97      1577.9449     -223094.02     -45547.949    
     42000   4.2            210.62958     -224712.8       1584.7716     -223128.03     -45421.178    
     42200   4.22           211.94372     -224757.13      1594.6591     -223162.47     -45285.667    
     42400   4.24           213.45424     -224803.89      1606.0242     -223197.87     -45175.479    
     42600   4.26           214.77965     -224850.13      1615.9966     -223234.14     -45061.611    
     42800   4.28           215.46798     -224892.52      1621.1756     -223271.34     -44928.597    
     43000   4.3            215.45811     -224931.01      1621.1013     -223309.91     -44775.077    
     43200   4.32           216.44288     -224977.63      1628.5107     -223349.11     -44622.176    
     43400   4.34           217.85988     -225028.19      1639.1722     -223389.02     -44474.456    
     43600   4.36           217.49786     -225066.87      1636.4483     -223430.42     -44293.324    
     43800   4.38           217.47474     -225108.25      1636.2744     -223471.98     -44087.602    
     44000   4.4            219.17165     -225161.91      1649.0419     -223512.87     -43903.625    
     44200   4.42           220.52617     -225213.24      1659.2333     -223554.01     -43719.076    
     44400   4.44           221.48962     -225262.18      1666.4822     -223595.7      -43546.605    
     44600   4.46           221.97589     -225308.78      1670.141      -223638.64     -43376.296    
     44800   4.48           221.71764     -225350.92      1668.1979     -223682.72     -43192.11     
     45000   4.5            222.3365      -225399.19      1672.8542     -223726.33     -43002.047    
     45200   4.52           223.97339     -225454.59      1685.1701     -223769.42     -42828.347    
     45400   4.54           224.87256     -225505.65      1691.9354     -223813.71     -42645.114    
     45600   4.56           224.95316     -225551.66      1692.5418     -223859.12     -42449.749    
     45800   4.58           225.63094     -225602.14      1697.6415     -223904.5      -42245.136    
     46000   4.6            226.24409     -225653.31      1702.2548     -223951.06     -42031.605    
     46200   4.62           226.50034     -225703.24      1704.1828     -223999.06     -41830.906    
     46400   4.64           227.60475     -225759.98      1712.4923     -224047.48     -41642.895    
     46600   4.66           228.30745     -225814.2       1717.7794     -224096.42     -41439.746    
     46800   4.68           228.26487     -225863.13      1717.4591     -224145.67     -41213.584    
     47000   4.7            229.02651     -225917.66      1723.1896     -224194.47     -41010.78     
     47200   4.72           230.07643     -225974.45      1731.0892     -224243.36     -40783.34     
     47400   4.74           230.19726     -226024.87      1731.9983     -224292.87     -40528.465    
     47600   4.76           230.40645     -226075.83      1733.5722     -224342.26     -40288.527    
     47800   4.78           231.23877     -226131.2       1739.8346     -224391.36     -40051.671    
     48000   4.8            231.67365     -226183.47      1743.1066     -224440.36     -39835.327    
     48200   4.82           232.15936     -226235.65      1746.7611     -224488.89     -39602.794    
     48400   4.84           231.94124     -226283.03      1745.12       -224537.91     -39337.149    
     48600   4.86           231.97333     -226332.54      1745.3614     -224587.18     -39073.953    
     48800   4.88           232.69044     -226386.77      1750.757      -224636.01     -38843.135    
     49000   4.9            233.35954     -226441.14      1755.7912     -224685.35     -38593.745    
     49200   4.92           233.5434      -226492.85      1757.1746     -224735.67     -38325.476    
     49400   4.94           233.45176     -226543.1       1756.4851     -224786.62     -38057.251    
     49600   4.96           233.32659     -226593.42      1755.5433     -224837.88     -37782.514    
     49800   4.98           232.48627     -226638.81      1749.2208     -224889.59     -37482.933    
     50000   5              231.92095     -226685.51      1744.9673     -224940.55     -37171.315    
     50200   5.02           232.38461     -226738.6       1748.4559     -224990.14     -36860.935    
     50400   5.04           232.7261      -226791.04      1751.0253     -225040.01     -36559.845    
     50600   5.06           231.84247     -226834.35      1744.3769     -225089.98     -36251.365    
     50800   5.08           231.64947     -226881.04      1742.9247     -225138.12     -35942.546    
     51000   5.1            231.75855     -226929.3       1743.7454     -225185.55     -35615.805    
     51200   5.12           229.89908     -226963.05      1729.7549     -225233.29     -35265.549    
     51400   5.14           228.80774     -227000.34      1721.5436     -225278.8      -34950.547    
     51600   5.16           229.17197     -227047.06      1724.2841     -225322.78     -34625.351    
     51800   5.18           228.89822     -227090.12      1722.2244     -225367.89     -34287.968    
     52000   5.2            228.75149     -227134.24      1721.1204     -225413.11     -33936.298    
     52200   5.22           228.83464     -227178.57      1721.746      -225456.83     -33582.368    
     52400   5.24           228.43479     -227217.97      1718.7375     -225499.23     -33208.811    
     52600   5.26           227.49965     -227252.65      1711.7016     -225540.95     -32832.548    
     52800   5.28           226.51886     -227285.87      1704.3221     -225581.54     -32467.412    
     53000   5.3            226.50873     -227324.75      1704.2459     -225620.5      -32103.009    
     53200   5.32           225.96478     -227359.75      1700.1532     -225659.59     -31749.601    
     53400   5.34           224.1857      -227386.89      1686.7675     -225700.12     -31369.103    
     53600   5.36           223.27641     -227420.36      1679.926      -225740.44     -30992.487    
     53800   5.38           223.73015     -227462.78      1683.3399     -225779.44     -30642.056    
     54000   5.4            222.80635     -227495.38      1676.3893     -225818.99     -30286.13     
     54200   5.42           219.97355     -227514.75      1655.0754     -225859.67     -29900.907    
     54400   5.44           219.14832     -227547.61      1648.8664     -225898.75     -29572.487    
     54600   5.46           219.39862     -227588.47      1650.7496     -225937.72     -29248.87     
     54800   5.48           217.46281     -227615.13      1636.1846     -225978.94     -28864.486    
     55000   5.5            215.21451     -227638.81      1619.2685     -226019.54     -28503.513    
     55200   5.52           214.32215     -227670.74      1612.5544     -226058.19     -28182.455    
     55400   5.54           212.72533     -227696.86      1600.54       -226096.32     -27862.787    
     55600   5.56           211.31504     -227722.48      1589.929      -226132.55     -27571.238    
     55800   5.58           210.55556     -227750.53      1584.2147     -226166.32     -27329.582    
     56000   5.6            209.69664     -227776.09      1577.7522     -226198.34     -27087.697    
     56200   5.62           208.81933     -227799.52      1571.1513     -226228.37     -26843.58     
     56400   5.64           207.33466     -227817.15      1559.9807     -226257.17     -26591.823    
     56600   5.66           206.22073     -227836.04      1551.5995     -226284.44     -26388.302    
     56800   5.68           205.15431     -227852.84      1543.5758     -226309.27     -26229.293    
     57000   5.7            204.53393     -227870.69      1538.908      -226331.78     -26077.16     
     57200   5.72           204.00799     -227887.04      1534.9509     -226352.09     -25925.02     
     57400   5.74           203.48793     -227900.63      1531.038      -226369.59     -25807.975    
     57600   5.76           202.5637      -227908.71      1524.0842     -226384.63     -25693.814    
     57800   5.78           201.66003     -227913.72      1517.2849     -226396.43     -25609.997    
     58000   5.8            202.24112     -227925.05      1521.657      -226403.39     -25573.329    
     58200   5.82           203.18678     -227935.25      1528.7722     -226406.48     -25558.597    
     58400   5.84           202.81522     -227933.49      1525.9765     -226407.52     -25552.891    
     58600   5.86           202.92626     -227930.77      1526.812      -226403.95     -25588.225    
     58800   5.88           203.30865     -227924.26      1529.6891     -226394.57     -25672.234    
     59000   5.9            203.85244     -227914.75      1533.7806     -226380.97     -25797.742    
     59200   5.92           204.62286     -227903.27      1539.5772     -226363.69     -25973.928    
     59400   5.94           205.17972     -227885.67      1543.767      -226341.91     -26196.132    
     59600   5.96           206.21094     -227868.8       1551.5259     -226317.27     -26417.539    
     59800   5.98           206.1663      -227844.75      1551.19       -226293.56     -26625.621    
     60000   6              207.05482     -227827.33      1557.8752     -226269.46     -26835.62     
     60200   6.02           209.62482     -227821.18      1577.2118     -226243.97     -27043.85     
     60400   6.04           211.04713     -227806.47      1587.9133     -226218.56     -27231.363    
     60600   6.06           211.1284      -227780.37      1588.5247     -226191.84     -27451.092    
     60800   6.08           212.1589      -227758.54      1596.2782     -226162.26     -27708.218    
     61000   6.1            213.40773     -227736.44      1605.6744     -226130.76     -28010.243    
     61200   6.12           215.40434     -227717.71      1620.6968     -226097.01     -28319.469    
     61400   6.14           217.40586     -227697.77      1635.7561     -226062.01     -28675.995    
     61600   6.16           217.97615     -227668.26      1640.047      -226028.21     -29002.831    
     61800   6.18           219.12853     -227642.68      1648.7175     -225993.96     -29321.805    
     62000   6.2            221.22729     -227622.83      1664.5085     -225958.32     -29665.224    
     62200   6.22           222.55185     -227597.16      1674.4744     -225922.69     -30010.838    
     62400   6.24           223.25283     -227566.68      1679.7486     -225886.93     -30349.847    
     62600   6.26           225.01911     -227543.02      1693.0381     -225849.98     -30717.753    
     62800   6.28           225.79569     -227512.55      1698.8811     -225813.66     -31060.911    
     63000   6.3            226.77899     -227483.31      1706.2793     -225777.03     -31407.418    
     63200   6.32           227.32676     -227450.48      1710.4007     -225740.07     -31798.879    
     63400   6.34           227.57289     -227414.95      1712.2526     -225702.69     -32186.11     
     63600   6.36           228.5487      -227383.49      1719.5946     -225663.89     -32565.326    
     63800   6.38           229.01028     -227347.56      1723.0675     -225624.49     -32896.972    
     64000   6.4            229.15955     -227308.51      1724.1906     -225584.31     -33241.666    
     64200   6.42           230.02853     -227273.72      1730.7288     -225542.99     -33612.217    
     64400   6.44           230.70175     -227236.35      1735.7941     -225500.56     -34005.329    
     64600   6.46           230.51353     -227191.81      1734.378      -225457.43     -34359.255    
     64800   6.48           229.91469     -227143.25      1729.8723     -225413.38     -34706.137    
     65000   6.5            229.80521     -227097.25      1729.0486     -225368.2      -35085.911    
     65200   6.52           230.59336     -227056.81      1734.9786     -225321.83     -35475.817    
     65400   6.54           230.34775     -227008.55      1733.1306     -225275.42     -35807.415    
     65600   6.56           229.71463     -226957.44      1728.367      -225229.07     -36135.123    
     65800   6.58           229.76933     -226910.73      1728.7786     -225181.95     -36513.829    
     66000   6.6            229.66934     -226862.94      1728.0263     -225134.91     -36841.634    
     66200   6.62           229.33843     -226813.7       1725.5365     -225088.16     -37159.904    
     66400   6.64           229.63366     -226768.38      1727.7578     -225040.62     -37499.599    
     66600   6.66           228.29105     -226711.52      1717.6561     -224993.86     -37810.21     
     66800   6.68           226.56918     -226652.9       1704.7007     -224948.19     -38097.706    
     67000   6.7            227.10871     -226611.19      1708.7602     -224902.43     -38407.084    
     67200   6.72           227.35224     -226568.22      1710.5924     -224857.63     -38703.43     
     67400   6.74           225.76669     -226512.83      1698.6628     -224814.16     -38935.146    
     67600   6.76           224.70847     -226460.56      1690.7008     -224769.86     -39186.337    
     67800   6.78           225.00605     -226416.58      1692.9398     -224723.64     -39485.047    
     68000   6.8            223.74074     -226362.08      1683.4197     -224678.66     -39724.694    
     68200   6.82           221.88748     -226305.51      1669.4757     -224636.04     -39923.918    
     68400   6.84           221.75815     -226262.55      1668.5027     -224594.05     -40163.871    
     68600   6.86           222.44235     -226226.32      1673.6506     -224552.67     -40391.085    
     68800   6.88           221.5521      -226180.1       1666.9523     -224513.15     -40558.285    
     69000   6.9            219.74797     -226127.38      1653.3781     -224474        -40712.79     
     69200   6.92           219.45412     -226084.48      1651.1672     -224433.31     -40922.502    
     69400   6.94           219.77111     -226046.47      1653.5523     -224392.92     -41147.039    
     69600   6.96           219.06808     -226003.1       1648.2627     -224354.84     -41319.056    
     69800   6.98           218.57237     -225963         1644.5329     -224318.46     -41489.533    
     70000   7              219.00241     -225930.95      1647.7686     -224283.18     -41663.521    
     70200   7.02           217.9455      -225889.98      1639.8164     -224250.17     -41827.294    
     70400   7.04           216.4428      -225846.25      1628.5101     -224217.74     -41977.068    
     70600   7.06           216.13286     -225810.79      1626.1781     -224184.61     -42152.622    
     70800   7.08           215.95565     -225777.74      1624.8448     -224152.9      -42308.969    
     71000   7.1            214.68833     -225738.96      1615.3095     -224123.65     -42401.38     
     71200   7.12           213.65272     -225702.56      1607.5176     -224095.04     -42493.141    
     71400   7.14           213.92291     -225676.05      1609.5505     -224066.5      -42653.672    
     71600   7.16           214.2421      -225650.96      1611.9521     -224039        -42830.334    
     71800   7.18           213.37725     -225618.63      1605.445      -224013.18     -42959.809    
     72000   7.2            211.52191     -225580.94      1591.4855     -223989.45     -43021.155    
     72200   7.22           210.29696     -225549.8       1582.2689     -223967.53     -43078.269    
     72400   7.24           210.32678     -225529.31      1582.4933     -223946.81     -43176.752    
     72600   7.26           210.47506     -225510.86      1583.609      -223927.25     -43290.934    
     72800   7.28           209.70768     -225486.56      1577.8353     -223908.73     -43374.36     
     73000   7.3            208.36258     -225458.64      1567.7147     -223890.93     -43412.969    
     73200   7.32           208.03665     -225438.75      1565.2625     -223873.49     -43460.609    
     73400   7.34           207.5137      -225418.48      1561.3278     -223857.15     -43544.549    
     73600   7.36           206.87159     -225397.69      1556.4966     -223841.19     -43617.423    
     73800   7.38           207.26382     -225384.18      1559.4477     -223824.73     -43694.05     
     74000   7.4            206.49717     -225362.93      1553.6795     -223809.25     -43758.656    
     74200   7.42           204.5407      -225333.67      1538.959      -223794.71     -43791.173    
     74400   7.44           203.77212     -225312.39      1533.1763     -223779.22     -43860.103    
     74600   7.46           204.17231     -225299.41      1536.1873     -223763.22     -43934.977    
     74800   7.48           203.93978     -225282.9       1534.4377     -223748.46     -44002.99     
     75000   7.5            202.78762     -225261.15      1525.7689     -223735.38     -44040.637    
     75200   7.52           202.035       -225243.29      1520.1062     -223723.18     -44063.56     
     75400   7.54           201.78136     -225229.2       1518.1978     -223711        -44114.902    
     75600   7.56           201.0839      -225210.86      1512.9502     -223697.91     -44191.064    
     75800   7.58           200.77723     -225193.88      1510.6428     -223683.23     -44271.075    
     76000   7.6            201.30467     -225182.51      1514.6112     -223667.9      -44329.473    
     76200   7.62           200.47334     -225162.26      1508.3563     -223653.9      -44385.103    
     76400   7.64           199.43262     -225140.91      1500.5259     -223640.38     -44448.915    
     76600   7.66           199.09096     -225124.89      1497.9553     -223626.93     -44498.97     
     76800   7.68           198.89536     -225110.35      1496.4836     -223613.87     -44539.028    
     77000   7.7            199.23388     -225099.69      1499.0306     -223600.66     -44610.136    
     77200   7.72           198.96146     -225084.92      1496.981      -223587.94     -44662.883    
     77400   7.74           197.77505     -225063.96      1488.0544     -223575.9      -44691.394    
     77600   7.76           196.84265     -225044.42      1481.0391     -223563.38     -44746.854    
     77800   7.78           197.20779     -225033.54      1483.7864     -223549.75     -44819.877    
     78000   7.8            197.24447     -225020.64      1484.0624     -223536.58     -44897.407    
     78200   7.82           196.24003     -225000.77      1476.505      -223524.27     -44962.532    
     78400   7.84           196.16567     -224987.52      1475.9455     -223511.58     -44990.739    
     78600   7.86           195.61062     -224971.71      1471.7693     -223499.94     -44995.734    
     78800   7.88           194.90883     -224956.08      1466.4891     -223489.59     -44997.115    
     79000   7.9            195.84025     -224952.23      1473.497      -223478.73     -45027.634    
     79200   7.92           196.71361     -224947.99      1480.0682     -223467.92     -45063.985    
     79400   7.94           196.44929     -224936.71      1478.0795     -223458.64     -45078.093    
     79600   7.96           196.31575     -224926.62      1477.0747     -223449.54     -45092.213    
     79800   7.98           196.49448     -224918         1478.4194     -223439.58     -45127.656    
     80000   8              195.71581     -224902.8       1472.5608     -223430.24     -45147.554    
     80200   8.02           195.36581     -224891.57      1469.9274     -223421.64     -45181.82     
     80400   8.04           196.42877     -224891.76      1477.9251     -223413.84     -45199.901    
     80600   8.06           196.73331     -224888.3       1480.2164     -223408.09     -45184.602    
     80800   8.08           196.39811     -224881.8       1477.6944     -223404.1      -45178.174    
     81000   8.1            196.00714     -224875.31      1474.7527     -223400.56     -45180.174    
     81200   8.12           195.87792     -224870.15      1473.7804     -223396.37     -45202.733    
     81400   8.14           196.23928     -224868.48      1476.4994     -223391.98     -45228.941    
     81600   8.16           196.64594     -224868.22      1479.5591     -223388.66     -45239.944    
     81800   8.18           196.47023     -224864.9       1478.237      -223386.66     -45224.371    
     82000   8.2            196.20788     -224861.28      1476.2631     -223385.02     -45223.958    
     82200   8.22           196.10517     -224858.93      1475.4903     -223383.44     -45246.772    
     82400   8.24           196.02687     -224856.97      1474.9012     -223382.07     -45271.552    
     82600   8.26           196.00299     -224855.81      1474.7215     -223381.09     -45285.392    
     82800   8.28           195.50027     -224852.07      1470.939      -223381.13     -45286.517    
     83000   8.3            194.98549     -224849.17      1467.0659     -223382.1      -45289.724    
     83200   8.32           195.69423     -224855.13      1472.3984     -223382.73     -45318.302    
     83400   8.34           195.06946     -224851.29      1467.6977     -223383.59     -45354.393    
     83600   8.36           194.06369     -224844.42      1460.1303     -223384.29     -45374.401    
     83800   8.38           194.2627      -224845.94      1461.6276     -223384.31     -45383.79     
     84000   8.4            194.64414     -224848.95      1464.4975     -223384.46     -45403.735    
     84200   8.42           195.63226     -224856.64      1471.9321     -223384.7      -45430.448    
     84400   8.44           195.96604     -224860.01      1474.4435     -223385.56     -45431.897    
     84600   8.46           195.53907     -224857.96      1471.231      -223386.73     -45422.127    
     84800   8.48           195.32496     -224857.33      1469.62       -223387.71     -45412.89     
     85000   8.5            195.41366     -224858.86      1470.2874     -223388.58     -45413.194    
     85200   8.52           195.73417     -224862.03      1472.6989     -223389.33     -45420.829    
     85400   8.54           196.32155     -224867.46      1477.1184     -223390.34     -45443.833    
     85600   8.56           197.16216     -224875.64      1483.443      -223392.2      -45437.4      
     85800   8.58           197.5655      -224881.36      1486.4778     -223394.88     -45409.566    
     86000   8.6            197.33439     -224882.66      1484.7389     -223397.92     -45377.124    
     86200   8.62           197.09961     -224884.05      1482.9724     -223401.08     -45360.676    
     86400   8.64           196.69739     -224884.55      1479.9462     -223404.6      -45356.849    
     86600   8.66           196.9607      -224890.14      1481.9273     -223408.21     -45378.454    
     86800   8.68           198.17386     -224903.29      1491.0551     -223412.23     -45399.119    
     87000   8.7            198.25989     -224910.08      1491.7023     -223418.38     -45373.368    
     87200   8.72           197.97182     -224915.69      1489.5349     -223426.16     -45328.579    
     87400   8.74           198.615       -224928.74      1494.3742     -223434.36     -45324.771    
     87600   8.76           198.261       -224935.69      1491.7107     -223443.98     -45309.082    
     87800   8.78           197.68988     -224941.62      1487.4136     -223454.2      -45273.958    
     88000   8.8            198.25019     -224955.29      1491.6293     -223463.67     -45230.869    
     88200   8.82           199.25621     -224972.4       1499.1986     -223473.2      -45196.225    
     88400   8.84           199.69571     -224986.88      1502.5054     -223484.37     -45184.629    
     88600   8.86           199.76225     -224999.95      1503.0061     -223496.95     -45148.616    
     88800   8.88           199.58913     -225011.71      1501.7035     -223510        -45077.275    
     89000   8.9            199.91316     -225027.34      1504.1415     -223523.2      -45022.984    
     89200   8.92           200.62543     -225046.17      1509.5007     -223536.67     -44992.504    
     89400   8.94           200.85007     -225062.18      1511.1908     -223550.99     -44917.487    
     89600   8.96           200.53543     -225075.22      1508.8235     -223566.4      -44825.537    
     89800   8.98           201.51457     -225098.11      1516.1905     -223581.92     -44757.052    
     90000   9              202.05476     -225118.05      1520.2549     -223597.79     -44704.248    
     90200   9.02           202.42353     -225136.51      1523.0295     -223613.48     -44668.598    
     90400   9.04           203.08057     -225156.33      1527.973      -223628.36     -44591.375    
     90600   9.06           203.20358     -225171.75      1528.8985     -223642.85     -44486.811    
     90800   9.08           203.35271     -225187.17      1530.0206     -223657.15     -44401.272    
     91000   9.1            204.1455      -225207.94      1535.9856     -223671.95     -44322.199    
     91200   9.12           205.22693     -225232.25      1544.1222     -223688.13     -44216.547    
     91400   9.14           205.66398     -225253.07      1547.4105     -223705.66     -44102.388    
     91600   9.16           205.85054     -225272.14      1548.8142     -223723.33     -43989.98     
     91800   9.18           205.64301     -225287.57      1547.2528     -223740.32     -43894.314    
     92000   9.2            206.29752     -225308.18      1552.1773     -223756        -43808.232    
     92200   9.22           207.1498      -225330.28      1558.5898     -223771.69     -43704.565    
     92400   9.24           207.27872     -225348.05      1559.5598     -223788.49     -43613.108    
     92600   9.26           208.32939     -225372.7       1567.465      -223805.24     -43545.414    
     92800   9.28           209.86559     -225401.86      1579.0234     -223822.84     -43463.17     
     93000   9.3            209.86511     -225422.26      1579.0197     -223843.24     -43309.268    
     93200   9.32           209.69392     -225442.64      1577.7317     -223864.91     -43124.186    
     93400   9.34           210.49905     -225469.59      1583.7895     -223885.8      -42959.306    
     93600   9.36           210.47699     -225489.65      1583.6235     -223906.03     -42820.012    
     93800   9.38           210.62413     -225510.41      1584.7306     -223925.68     -42721.39     
     94000   9.4            211.99245     -225540.65      1595.0258     -223945.63     -42652.864    
     94200   9.42           212.3222      -225565.54      1597.5068     -223968.04     -42528.859    
     94400   9.44           212.18712     -225588.4       1596.4905     -223991.91     -42361.567    
     94600   9.46           212.78787     -225616.93      1601.0105     -224015.92     -42231.439    
     94800   9.48           214.25803     -225652.13      1612.0719     -224040.05     -42121.536    
     95000   9.5            214.45295     -225678.38      1613.5385     -224064.84     -41984.504    
     95200   9.52           214.64428     -225703.94      1614.9781     -224088.96     -41828.986    
     95400   9.54           215.316       -225732.29      1620.0321     -224112.26     -41671.618    
     95600   9.56           215.19158     -225755.18      1619.096      -224136.09     -41551.263    
     95800   9.58           216.12884     -225785.5       1626.1479     -224159.35     -41440.744    
     96000   9.6            216.96503     -225814.81      1632.4393     -224182.38     -41338.34     
     96200   9.62           216.59794     -225836.3       1629.6774     -224206.63     -41192.817    
     96400   9.64           216.53891     -225860.66      1629.2332     -224231.42     -41048.167    
     96600   9.66           217.24569     -225890.37      1634.5511     -224255.82     -40922.511    
     96800   9.68           217.84593     -225919.84      1639.0672     -224280.77     -40807.473    
     97000   9.7            217.58096     -225944.1       1637.0736     -224307.02     -40675.456    
     97200   9.72           216.52735     -225962.95      1629.1463     -224333.8      -40518.489    
     97400   9.74           217.17872     -225993.19      1634.0471     -224359.14     -40379.357    
     97600   9.76           217.91629     -226024.34      1639.5966     -224384.74     -40267.764    
     97800   9.78           217.7394      -226050.13      1638.2657     -224411.86     -40119.034    
     98000   9.8            217.63648     -226076.23      1637.4914     -224438.73     -39973.556    
     98200   9.82           218.12584     -226105.77      1641.1732     -224464.6      -39839.224    
     98400   9.84           218.7153      -226136.62      1645.6083     -224491.02     -39694.821    
     98600   9.86           219.20803     -226167.8       1649.3157     -224518.48     -39548.547    
     98800   9.88           219.89275     -226200.83      1654.4674     -224546.37     -39405.938    
     99000   9.9            219.20999     -226223.73      1649.3304     -224574.4      -39245.058    
     99200   9.92           219.43428     -226251.85      1651.0179     -224600.83     -39118.555    
     99400   9.94           220.51943     -226285.73      1659.1826     -224626.55     -38990.864    
     99600   9.96           219.69954     -226306.48      1653.0138     -224653.47     -38829.886    
     99800   9.98           219.86909     -226333.53      1654.2894     -224679.24     -38700.463    
    100000   10             221.02323     -226366.91      1662.9732     -224703.94     -38577.502    
Loop time of 144.83 on 1 procs for 100000 steps with 58209 atoms

Performance: 5.966 ns/day, 4.023 hours/ns, 690.463 timesteps/s, 40.191 Matom-step/s
98.0% CPU use with 1 MPI tasks x 1 OpenMP threads

MPI task timing breakdown:
Section |  min time  |  avg time  |  max time  |%varavg| %total
---------------------------------------------------------------
Pair    | 98.149     | 98.149     | 98.149     |   0.0 | 67.77
Neigh   | 0.15141    | 0.15141    | 0.15141    |   0.0 |  0.10
Comm    | 0.48103    | 0.48103    | 0.48103    |   0.0 |  0.33
Output  | 24.085     | 24.085     | 24.085     |   0.0 | 16.63
Modify  | 18.252     | 18.252     | 18.252     |   0.0 | 12.60
Other   |            | 3.712      |            |       |  2.56

Nlocal:          58209 ave       58209 max       58209 min
Histogram: 1 0 0 0 0 0 0 0 0 0
Nghost:          29012 ave       29012 max       29012 min
Histogram: 1 0 0 0 0 0 0 0 0 0
Neighs:              0 ave           0 max           0 min
Histogram: 1 0 0 0 0 0 0 0 0 0
FullNghs:  1.08733e+07 ave 1.08733e+07 max 1.08733e+07 min
Histogram: 1 0 0 0 0 0 0 0 0 0

Total # of neighbors = 10873328
Ave neighs/atom = 186.79806
Neighbor list builds = 113
Dangerous builds = 0
System init for write_restart ...
Total wall time: 0:02:34
