
Lmod is automatically replacing "gcc/12.3" with "intel/2023.2.1".


Due to MODULEPATH changes, the following have been reloaded:
  1) aocl-blas/5.1     2) aocl-lapack/5.1     3) flexiblas/3.3.1     4) openmpi/4.1.5

LAMMPS (22 Jul 2025 - Development - patch_22Jul2025-72-g8b7fdf9ad3)
KOKKOS mode with Kokkos version 4.6.2 is enabled
  will use up to 1 GPU(s) per node
  using 1 OpenMP thread(s) per MPI task
Reading data file ...
  orthogonal box = (0 0 0) to (162 162 150)
  1 by 1 by 1 MPI processor grid
  reading atoms ...
  130899 atoms
  read_data CPU = 0.237 seconds
128000 atoms in group substrate_group
2899 atoms in group particle_group
Reading eam/alloy potential file /home/wuwen123/comp/yao/lammps/potentials/AlCu.eam.alloy with DATE: 2008-10-01
Changing box ...
Switching to 'neigh_modify every 1 delay 0 check yes' setting during minimization
Neighbor list info ...
  update: every = 1 steps, delay = 0 steps, check = yes
  max neighbors/atom: 2000, page size: 100000
  master list distance cutoff = 8.1825
  ghost atom cutoff = 8.1825
  binsize = 8.1825, bins = 20 20 16
  1 neighbor lists, perpetual/occasional/extra = 1 0 0
  (1) pair eam/alloy/kk, perpetual
      attributes: full, newton off, kokkos_device
      pair build: full/bin/kk/device
      stencil: full/bin/3d
      bin: kk/device
Setting up cg/kk style minimization ...
  Unit style    : metal
  Current step  : 0
WARNING: Fix MINIMIZE/kk not compatible with sending data in Kokkos communication (src/KOKKOS/comm_kokkos.cpp:766)
WARNING: Fix with atom-based arrays not compatible with sending data in Kokkos communication, switching to classic exchange/border communication (src/KOKKOS/comm_kokkos.cpp:779)
WARNING: Fix MINIMIZE/kk not compatible with Kokkos sorting on device (src/KOKKOS/atom_kokkos.cpp:212)
WARNING: Fix with atom-based arrays not compatible with Kokkos sorting on device, switching to classic host sorting (src/KOKKOS/atom_kokkos.cpp:218)
Per MPI rank memory allocation (min/avg/max) = 40.44 | 40.44 | 40.44 Mbytes
   Step          Temp          E_pair         E_mol          TotEng         Press          Volume    
         0   0             -432603.64      0             -432603.64     -1585.2738      3435667.6    
        23   0             -432625.91      0             -432625.91     -858.13137      3435667.6    
Loop time of 0.1681 on 1 procs for 23 steps with 130899 atoms

94.9% CPU use with 1 MPI tasks x 1 OpenMP threads

Minimization stats:
  Stopping criterion = linesearch alpha is zero
  Energy initial, next-to-last, final = 
     -432603.639260474  -432625.907008582  -432625.907008582
  Force two-norm initial, final = 14.124092 0.13113456
  Force max component initial, final = 0.37864385 0.0035973836
  Final line search alpha, max atom move = 4.7683716e-07 1.7153662e-09
  Iterations, force evaluations = 23 87

MPI task timing breakdown:
Section |  min time  |  avg time  |  max time  |%varavg| %total
---------------------------------------------------------------
Pair    | 0.072296   | 0.072296   | 0.072296   |   0.0 | 43.01
Neigh   | 0          | 0          | 0          |   0.0 |  0.00
Comm    | 0.0015825  | 0.0015825  | 0.0015825  |   0.0 |  0.94
Output  | 0          | 0          | 0          |   0.0 |  0.00
Modify  | 0          | 0          | 0          |   0.0 |  0.00
Other   |            | 0.09422    |            |       | 56.05

Nlocal:         130899 ave      130899 max      130899 min
Histogram: 1 0 0 0 0 0 0 0 0 0
Nghost:          30420 ave       30420 max       30420 min
Histogram: 1 0 0 0 0 0 0 0 0 0
Neighs:              0 ave           0 max           0 min
Histogram: 1 0 0 0 0 0 0 0 0 0
FullNghs:  1.76884e+07 ave 1.76884e+07 max 1.76884e+07 min
Histogram: 1 0 0 0 0 0 0 0 0 0

Total # of neighbors = 17688438
Ave neighs/atom = 135.13043
Neighbor list builds = 0
Dangerous builds = 0
System init for write_data ...
Setting up Verlet run ...
  Unit style    : metal
  Current step  : 23
  Time step     : 0.0005
Per MPI rank memory allocation (min/avg/max) = 43.3 | 43.3 | 43.3 Mbytes
   Step          Temp           Pxx            Pyy            Pzz           Press          Volume    
        23   300            344.26938      349.53307      1468.2704      720.69093      3432091.6    
      1000   152.73784      3.8037777      8.5367279      1214.6831      409.00786      3472985.7    
      2000   157.41333      0.86745238    -6.2757159      495.94152      163.51108      3469247.8    
      3000   161.65706      4.8440161     -4.2534202     -677.15806     -225.52249      3456927      
      4000   165.59053      0.09953105    -0.28947732    -1351.4767     -450.55555      3453516.9    
      5000   169.57915      13.241265     -9.5279929     -1695.1275     -563.80475      3444342.9    
      6000   175.40673      1.1027414      5.996093      -1067.9709     -353.62401      3453308.7    
      7000   181.32709      5.3603089     -4.5258672     -215.40603     -71.523864      3468750.6    
      8000   185.90803     -4.9366333      16.622569      850.72588      287.47061      3480367.9    
      9000   190.47417     -10.305206      7.1150767      1348.556       448.45529      3494912.1    
     10000   195.9123       3.8917685      2.719754       1563.8894      523.50032      3494960.4    
     11000   200.64131     -1.225286       4.3600979      1047.3844      350.17308      3489755.4    
     12000   205.61584     -0.72608019    -8.8176016      191.52252      60.659612      3477741.6    
     13000   210.00923     -7.2151095      3.6019689     -936.08581     -313.23298      3464407.9    
     14000   213.70994      4.464743      -1.2793531     -1622.7682     -539.86092      3461599.2    
     15000   217.76745      5.8811772     -2.211041      -1748.8423     -581.72405      3466899.4    
     16000   223.24467     -1.3957833      4.7406023     -946.64371     -314.43296      3474140      
     17000   228.56894      11.560861      0.27418042     123.69933      45.178125      3485926.4    
     18000   233.15706     -7.1136103      7.6173012      1120.9575      373.8204       3502284.1    
     19000   236.46018      6.7020907     -14.435613      1577.5296      523.26537      3515416.8    
     20000   240.19604     -6.5577042      3.9355096      1536.8784      511.41873      3509084.3    
     21000   246.04285     -3.6453331      11.139907      820.76019      276.08492      3503197.2    
     22000   249.28179      7.7689012     -11.909815     -163.20605     -55.782321      3491782.8    
     23000   252.08707     -8.2510533     -2.1325045     -1218.3684     -409.584        3486743.9    
     24000   254.29674     -6.7567788      0.98346965    -1661.8842     -555.88585      3473168.2    
     25000   258.47016      5.5697574      4.9146082     -1484.8169     -491.44419      3479521.3    
     26000   262.64623      27.400318     -5.0772898     -691.96084     -223.2126       3482750.6    
     27000   266.48302      11.377562      2.8139131      336.25209      116.81452      3499355.3    
     28000   269.56218     -3.0664466      8.8743972      1114.5064      373.43812      3524753.6    
     29000   271.97118     -6.8607382      11.03883       1489.4614      497.87984      3524954.7    
     30000   274.78917      2.3419101      1.6102251      1351.6912      451.88111      3531337.3    
     31000   276.9133      -4.4046623     -1.5762701      764.84908      252.95605      3511228.3    
     32000   278.94975     -11.421266      11.551235     -211.44497     -70.438333      3495566.7    
     33000   281.12789     -2.1847325     -12.027745     -1069.6948     -361.30241      3493018.5    
     34000   282.66205      5.9957176      3.171499      -1627.4073     -539.41337      3482061.5    
     35000   284.83175     -8.4705406      14.215378     -1370.9382     -455.06445      3491167.9    
     36000   287.37869      1.410657      -0.45508579    -707.26457     -235.43633      3508962.8    
     37000   289.71012     -10.137686      14.66253       354.44977      119.6582       3514170.7    
     38000   291.24066      5.1089743     -0.71162755     1066.3068      356.90139      3526441.1    
     39000   290.82096     -15.45004       6.2294878      1450.8947      480.55804      3527955.8    
     40000   292.76447     -13.822772     -2.563966       1218.3081      400.64046      3530418.2    
     41000   294.98551      24.664956     -36.827785      685.16797      224.33505      3521097.7    
     42000   294.60221      8.900005      -20.42234      -250.39208     -87.304804      3509150.8    
     43000   295.51005      4.5187942      2.0189588     -929.79411     -307.75212      3501165.4    
     44000   295.80706     -6.3681691      5.614871      -1514.8164     -505.1899       3490148.7    
     45000   296.34696     -11.827991      19.590515     -1235.6449     -409.29411      3494510.7    
     46000   297.98032      8.2525897     -1.7304236     -660.41188     -217.96324      3510551.3    
     47000   299.31936      14.531136     -11.685827      278.00697      93.617426      3516956.8    
     48000   299.42508      7.6544482     -11.168408      852.54427      283.0101       3527038.3    
     49000   299.86732      19.664375     -1.2154571      1336.0222      451.49039      3537671.6    
     50000   299.1385      -19.271495      3.6834768      1121.4969      368.6363       3537059.5    
     50023   299.59323     -3.1232815     -0.81467074     1120.9272      372.32976      3536782.2    
Loop time of 81.2666 on 1 procs for 50000 steps with 130899 atoms

Performance: 26.579 ns/day, 0.903 hours/ns, 615.259 timesteps/s, 80.537 Matom-step/s
98.4% CPU use with 1 MPI tasks x 1 OpenMP threads

MPI task timing breakdown:
Section |  min time  |  avg time  |  max time  |%varavg| %total
---------------------------------------------------------------
Pair    | 56.443     | 56.443     | 56.443     |   0.0 | 69.45
Neigh   | 0.42884    | 0.42884    | 0.42884    |   0.0 |  0.53
Comm    | 0.86724    | 0.86724    | 0.86724    |   0.0 |  1.07
Output  | 9.1784     | 9.1784     | 9.1784     |   0.0 | 11.29
Modify  | 12.228     | 12.228     | 12.228     |   0.0 | 15.05
Other   |            | 2.121      |            |       |  2.61

Nlocal:         130899 ave      130899 max      130899 min
Histogram: 1 0 0 0 0 0 0 0 0 0
Nghost:          27135 ave       27135 max       27135 min
Histogram: 1 0 0 0 0 0 0 0 0 0
Neighs:              0 ave           0 max           0 min
Histogram: 1 0 0 0 0 0 0 0 0 0
FullNghs:  1.73378e+07 ave 1.73378e+07 max 1.73378e+07 min
Histogram: 1 0 0 0 0 0 0 0 0 0

Total # of neighbors = 17337846
Ave neighs/atom = 132.45209
Neighbor list builds = 423
Dangerous builds = 0
WARNING: Detected non-ASCII characters in input. Will try to continue by replacing with ASCII equivalents where known. (src/input.cpp:478)
15522 atoms in group frozen_atoms
WARNING: No fixes with time integration, atoms won't move
For more information see https://docs.lammps.org/err0028 (src/verlet.cpp:60)
Setting up Verlet run ...
  Unit style    : metal
  Current step  : 50023
  Time step     : 0.0005
Per MPI rank memory allocation (min/avg/max) = 43.08 | 43.08 | 43.08 Mbytes
   Step          Temp           Pxx            Pyy            Pzz           Press          Volume    
     50023   278.18524     -180.62894     -180.96773      1151.334       263.24579      3532648      
     51000   278.18524     -180.62894     -180.96773      1151.334       263.24579      3532648      
     52000   278.18524     -180.62894     -180.96773      1151.334       263.24579      3532648      
     53000   278.18524     -180.62894     -180.96773      1151.334       263.24579      3532648      
     54000   278.18524     -180.62894     -180.96773      1151.334       263.24579      3532648      
     55000   278.18524     -180.62894     -180.96773      1151.334       263.24579      3532648      
     56000   278.18524     -180.62894     -180.96773      1151.334       263.24579      3532648      
     57000   278.18524     -180.62894     -180.96773      1151.334       263.24579      3532648      
     58000   278.18524     -180.62894     -180.96773      1151.334       263.24579      3532648      
     59000   278.18524     -180.62894     -180.96773      1151.334       263.24579      3532648      
     60000   278.18524     -180.62894     -180.96773      1151.334       263.24579      3532648      
     61000   278.18524     -180.62894     -180.96773      1151.334       263.24579      3532648      
     62000   278.18524     -180.62894     -180.96773      1151.334       263.24579      3532648      
     63000   278.18524     -180.62894     -180.96773      1151.334       263.24579      3532648      
     64000   278.18524     -180.62894     -180.96773      1151.334       263.24579      3532648      
     65000   278.18524     -180.62894     -180.96773      1151.334       263.24579      3532648      
     66000   278.18524     -180.62894     -180.96773      1151.334       263.24579      3532648      
     67000   278.18524     -180.62894     -180.96773      1151.334       263.24579      3532648      
     68000   278.18524     -180.62894     -180.96773      1151.334       263.24579      3532648      
     69000   278.18524     -180.62894     -180.96773      1151.334       263.24579      3532648      
     70000   278.18524     -180.62894     -180.96773      1151.334       263.24579      3532648      
     71000   278.18524     -180.62894     -180.96773      1151.334       263.24579      3532648      
     72000   278.18524     -180.62894     -180.96773      1151.334       263.24579      3532648      
     73000   278.18524     -180.62894     -180.96773      1151.334       263.24579      3532648      
     74000   278.18524     -180.62894     -180.96773      1151.334       263.24579      3532648      
     75000   278.18524     -180.62894     -180.96773      1151.334       263.24579      3532648      
     76000   278.18524     -180.62894     -180.96773      1151.334       263.24579      3532648      
     77000   278.18524     -180.62894     -180.96773      1151.334       263.24579      3532648      
     78000   278.18524     -180.62894     -180.96773      1151.334       263.24579      3532648      
     79000   278.18524     -180.62894     -180.96773      1151.334       263.24579      3532648      
     80000   278.18524     -180.62894     -180.96773      1151.334       263.24579      3532648      
     81000   278.18524     -180.62894     -180.96773      1151.334       263.24579      3532648      
     82000   278.18524     -180.62894     -180.96773      1151.334       263.24579      3532648      
     83000   278.18524     -180.62894     -180.96773      1151.334       263.24579      3532648      
     84000   278.18524     -180.62894     -180.96773      1151.334       263.24579      3532648      
     85000   278.18524     -180.62894     -180.96773      1151.334       263.24579      3532648      
     86000   278.18524     -180.62894     -180.96773      1151.334       263.24579      3532648      
     87000   278.18524     -180.62894     -180.96773      1151.334       263.24579      3532648      
     88000   278.18524     -180.62894     -180.96773      1151.334       263.24579      3532648      
     89000   278.18524     -180.62894     -180.96773      1151.334       263.24579      3532648      
     90000   278.18524     -180.62894     -180.96773      1151.334       263.24579      3532648      
     91000   278.18524     -180.62894     -180.96773      1151.334       263.24579      3532648      
     92000   278.18524     -180.62894     -180.96773      1151.334       263.24579      3532648      
     93000   278.18524     -180.62894     -180.96773      1151.334       263.24579      3532648      
     94000   278.18524     -180.62894     -180.96773      1151.334       263.24579      3532648      
     95000   278.18524     -180.62894     -180.96773      1151.334       263.24579      3532648      
     96000   278.18524     -180.62894     -180.96773      1151.334       263.24579      3532648      
     97000   278.18524     -180.62894     -180.96773      1151.334       263.24579      3532648      
     98000   278.18524     -180.62894     -180.96773      1151.334       263.24579      3532648      
     99000   278.18524     -180.62894     -180.96773      1151.334       263.24579      3532648      
    100000   278.18524     -180.62894     -180.96773      1151.334       263.24579      3532648      
    100023   278.18524     -180.62894     -180.96773      1151.334       263.24579      3532648      
Loop time of 91.8591 on 1 procs for 50000 steps with 130899 atoms

Performance: 23.514 ns/day, 1.021 hours/ns, 544.312 timesteps/s, 71.250 Matom-step/s
96.9% CPU use with 1 MPI tasks x 1 OpenMP threads

MPI task timing breakdown:
Section |  min time  |  avg time  |  max time  |%varavg| %total
---------------------------------------------------------------
Pair    | 21.495     | 21.495     | 21.495     |   0.0 | 23.40
Neigh   | 0          | 0          | 0          |   0.0 |  0.00
Comm    | 0.15435    | 0.15435    | 0.15435    |   0.0 |  0.17
Output  | 36.867     | 36.867     | 36.867     |   0.0 | 40.13
Modify  | 31.738     | 31.738     | 31.738     |   0.0 | 34.55
Other   |            | 1.606      |            |       |  1.75

Nlocal:         130899 ave      130899 max      130899 min
Histogram: 1 0 0 0 0 0 0 0 0 0
Nghost:          27170 ave       27170 max       27170 min
Histogram: 1 0 0 0 0 0 0 0 0 0
Neighs:              0 ave           0 max           0 min
Histogram: 1 0 0 0 0 0 0 0 0 0
FullNghs:  1.73382e+07 ave 1.73382e+07 max 1.73382e+07 min
Histogram: 1 0 0 0 0 0 0 0 0 0

Total # of neighbors = 17338212
Ave neighs/atom = 132.45489
Neighbor list builds = 0
Dangerous builds = 0
Total wall time: 0:02:55
