
Lmod is automatically replacing "gcc/12.3" with "intel/2023.2.1".


Due to MODULEPATH changes, the following have been reloaded:
  1) aocl-blas/5.1     2) aocl-lapack/5.1     3) flexiblas/3.3.1     4) openmpi/4.1.5

LAMMPS (22 Jul 2025 - Development - patch_22Jul2025-72-g8b7fdf9ad3)
KOKKOS mode with Kokkos version 4.6.2 is enabled
  will use up to 1 GPU(s) per node
  using 1 OpenMP thread(s) per MPI task
WARNING: Detected non-ASCII characters in input. Will try to continue by replacing with ASCII equivalents where known. (src/input.cpp:478)
Created orthogonal box = (-150 -57.32 0) to (150 57.32 390)
  1 by 1 by 1 MPI processor grid
Lattice spacing in x,y,z = 2.866 2.866 2.866
Created 526680 atoms
  using lattice units in orthogonal box = (-150 -57.32 0) to (150 57.32 390)
  create_atoms CPU = 0.132 seconds
Lattice spacing in x,y,z = 4.05 4.05 4.05
Created 6791 atoms
  using lattice units in orthogonal box = (-150 -57.32 0) to (150 57.32 390)
  create_atoms CPU = 0.008 seconds
6791 atoms in group particle_group
526680 atoms in group substrate_group
175560 atoms in group frozen_atoms
87800 atoms in group thermostat_atoms
263320 atoms in group mobile_atoms
270111 atoms in group nve_atoms
ERROR on proc 0: cannot open eam/fs potential file /home/wuwen/lammps/potentials/AlFe_mm.eam.fs: No such file or directory (src/potential_file_reader.cpp:58)
ERROR on proc 0: Cannot open input script in.depositionexample: No such file or directory (src/lammps.cpp:565)
