
Lmod is automatically replacing "gcc/12.3" with "intel/2023.2.1".


Due to MODULEPATH changes, the following have been reloaded:
  1) aocl-blas/5.1     2) aocl-lapack/5.1     3) flexiblas/3.3.1     4) openmpi/4.1.5

LAMMPS (22 Jul 2025 - Development - patch_22Jul2025-72-g8b7fdf9ad3)
KOKKOS mode with Kokkos version 4.6.2 is enabled
  will use up to 1 GPU(s) per node
  using 1 OpenMP thread(s) per MPI task
WARNING: Detected non-ASCII characters in input. Will try to continue by replacing with ASCII equivalents where known. (src/input.cpp:478)
Created orthogonal box = (-50 -57.32 0) to (50 57.32 130)
  1 by 1 by 1 MPI processor grid
Lattice spacing in x,y,z = 2.866 2.866 2.866
Created 57960 atoms
  using lattice units in orthogonal box = (-50 -57.32 0) to (50 57.32 130)
  create_atoms CPU = 0.016 seconds
Lattice spacing in x,y,z = 4.05 4.05 4.05
Created 249 atoms
  using lattice units in orthogonal box = (-50 -57.32 0) to (50 57.32 130)
  create_atoms CPU = 0.001 seconds
249 atoms in group particle_group
57960 atoms in group substrate_group
19320 atoms in group frozen_atoms
9680 atoms in group thermostat_atoms
28960 atoms in group mobile_atoms
29209 atoms in group nve_atoms
Reading eam/fs potential file /home/wuwen123/comp/yao/lammps/potentials/AlFe_mm.eam.fs with DATE: 2007-06-11
Neighbor list info ...
  update: every = 1 steps, delay = 0 steps, check = yes
  max neighbors/atom: 2000, page size: 100000
  master list distance cutoff = 8.5
  ghost atom cutoff = 8.5
  binsize = 8.5, bins = 12 14 16
  1 neighbor lists, perpetual/occasional/extra = 1 0 0
  (1) pair eam/fs, perpetual
      attributes: full, newton off, kokkos_device
      pair build: full/bin/kk/device
      stencil: full/bin/3d
      bin: kk/device
Setting up Verlet run ...
  Unit style    : metal
  Current step  : 0
  Time step     : 0.0001
Per MPI rank memory allocation (min/avg/max) = 14.42 | 14.42 | 14.42 Mbytes
   Step          Time           Temp          PotEng         KinEng         TotEng         Press     
         0   0              150.4095      -229780.73      1131.6773     -228649.06     -10699.786    
       200   0.02           80.531419     -229256.75      605.91634     -228650.84     -10812.421    
       400   0.04           47.511874     -228927.04      357.47813     -228569.57     -11622.546    
       600   0.06           88.310421     -229096.37      664.44535     -228431.92     -13283.465    
       800   0.08           91.785576     -229029.24      690.59234     -228338.65     -14245.625    
      1000   0.1            108.48866     -229057.96      816.26588     -228241.69     -14838.821    
      1200   0.12           114.92453     -229016.07      864.68922     -228151.38     -15557.766    
      1400   0.14           101.49539     -228841.78      763.6487      -228078.13     -16290.897    
      1600   0.16           113.81109     -228843.3       856.31175     -227986.99     -17408.688    
      1800   0.18           116.37065     -228789.08      875.56984     -227913.51     -18209.963    
      2000   0.2            116.78567     -228738.19      878.69237     -227859.49     -18613.02     
      2200   0.22           131.3401      -228784.8       988.19956     -227796.6      -19142.249    
      2400   0.24           132.4071      -228728.26      996.22765     -227732.03     -19782.895    
      2600   0.26           132.61342     -228654.33      997.78        -227656.55     -20558.642    
      2800   0.28           139.0443      -228619.09      1046.1658     -227572.92     -21440.305    
      3000   0.3            141.70041     -228567.93      1066.1503     -227501.78     -22177.3      
      3200   0.32           146.8041      -228543.04      1104.5503     -227438.49     -22759.415    
      3400   0.34           152.91772     -228523.66      1150.549      -227373.11     -23392.748    
      3600   0.36           156.46975     -228479.22      1177.2744     -227301.94     -24106.3      
      3800   0.38           159.52262     -228425.37      1200.2442     -227225.12     -24879.745    
      4000   0.4            163.51134     -228380.16      1230.2551     -227149.91     -25651.044    
      4200   0.42           169.45643     -228355.24      1274.9859     -227080.25     -26379.793    
      4400   0.44           174.44115     -228325.61      1312.4908     -227013.12     -27011.833    
      4600   0.46           179.76248     -228294.17      1352.5284     -226941.64     -27689.796    
      4800   0.48           184.76777     -228253.73      1390.188      -226863.55     -28436.963    
      5000   0.5            189.08615     -228204.3       1422.6794     -226781.62     -29210.987    
      5200   0.52           195.12212     -228167.3       1468.0939     -226699.21     -30013.911    
      5400   0.54           200.77911     -228129.03      1510.6569     -226618.37     -30765.405    
      5600   0.56           207.2352      -228095.39      1559.2324     -226536.16     -31508.752    
      5800   0.58           214.6909      -228065.14      1615.3289     -226449.82     -32275.639    
      6000   0.6            220.09586     -228017.1       1655.9956     -226361.1      -33042.205    
      6200   0.62           224.57916     -227961.61      1689.7279     -226271.88     -33797.855    
      6400   0.64           230.6072      -227918.55      1735.0827     -226183.46     -34558.589    
      6600   0.66           235.54323     -227871.99      1772.2213     -226099.76     -35279.966    
      6800   0.68           238.35679     -227815.3       1793.3904     -226021.91     -35933.397    
      7000   0.7            239.93328     -227753.33      1805.2519     -225948.08     -36533.255    
      7200   0.72           239.29544     -227678.37      1800.4528     -225877.92     -37067.072    
      7400   0.74           236.63038     -227591.28      1780.401      -225810.88     -37523.309    
      7600   0.76           234.0892      -227506.9       1761.2812     -225745.62     -37924.502    
      7800   0.78           232.44318     -227431.1       1748.8966     -225682.21     -38272.931    
      8000   0.8            230.57529     -227356.31      1734.8426     -225621.47     -38544.691    
      8200   0.82           228.23977     -227280.17      1717.2702     -225562.9      -38730.269    
      8400   0.84           226.51101     -227209.24      1704.2631     -225504.97     -38870.499    
      8600   0.86           225.36267     -227142.86      1695.623      -225447.24     -39016.949    
      8800   0.88           224.49281     -227079.05      1689.0782     -225389.97     -39166.354    
      9000   0.9            224.46398     -227021.54      1688.8613     -225332.68     -39346.644    
      9200   0.92           224.63566     -226965.18      1690.153      -225275.02     -39581.132    
      9400   0.94           224.02168     -226902.6       1685.5334     -225217.06     -39832.927    
      9600   0.96           223.19392     -226837.32      1679.3054     -225158.01     -40100.12     
      9800   0.98           223.3669      -226777.14      1680.6069     -225096.53     -40410.709    
     10000   1              223.31558     -226714.28      1680.2207     -225034.06     -40714.882    
     10200   1.02           221.305       -226637.73      1665.0932     -224972.64     -40955.383    
     10400   1.04           219.39947     -226561.45      1650.756      -224910.69     -41190.386    
     10600   1.06           218.91805     -226494.41      1647.1338     -224847.28     -41469.958    
     10800   1.08           218.71182     -226428.94      1645.5821     -224783.36     -41767.489    
     11000   1.1            218.83701     -226365.44      1646.5241     -224718.92     -42115.852    
     11200   1.12           218.8317      -226301.2       1646.4841     -224654.72     -42504.124    
     11400   1.14           217.61288     -226229.59      1637.3137     -224592.28     -42895.859    
     11600   1.16           215.60756     -226152.92      1622.2258     -224530.7      -43272.714    
     11800   1.18           214.63975     -226083.2       1614.944      -224468.25     -43602.007    
     12000   1.2            213.68484     -226012.91      1607.7593     -224405.15     -43885.461    
     12200   1.22           213.39356     -225946.46      1605.5677     -224340.89     -44164.943    
     12400   1.24           213.5008      -225882.1       1606.3746     -224275.73     -44486.222    
     12600   1.26           211.97104     -225806.09      1594.8647     -224211.23     -44797.771    
     12800   1.28           209.62106     -225724.64      1577.1835     -224147.46     -45099.595    
     13000   1.3            208.12245     -225649.76      1565.908      -224083.85     -45420.97     
     13200   1.32           207.78172     -225584.27      1563.3444     -224020.93     -45739.056    
     13400   1.34           206.97183     -225517.58      1557.2507     -223960.33     -46013.557    
     13600   1.36           206.03899     -225453         1550.2321     -223902.77     -46260.186    
     13800   1.38           204.82222     -225389.44      1541.0772     -223848.36     -46479.873    
     14000   1.4            203.41859     -225327.33      1530.5163     -223796.82     -46668.604    
     14200   1.42           201.96976     -225267.39      1519.6153     -223747.78     -46833.959    
     14400   1.44           201.05319     -225212.74      1512.7191     -223700.02     -46977.452    
     14600   1.46           200.46746     -225161.65      1508.312      -223653.34     -47099.77     
     14800   1.48           200.05776     -225114.35      1505.2295     -223609.12     -47224.556    
     15000   1.5            198.53099     -225061.27      1493.7421     -223567.53     -47308.125    
     15200   1.52           196.72529     -225006.92      1480.1561     -223526.76     -47372.105    
     15400   1.54           196.37699     -224963.76      1477.5354     -223486.22     -47455.952    
     15600   1.56           196.02397     -224922.08      1474.8793     -223447.21     -47571.422    
     15800   1.58           194.37907     -224872         1462.5031     -223409.49     -47696.178    
     16000   1.6            192.93838     -224822.54      1451.6634     -223370.87     -47820.746    
     16200   1.62           191.79621     -224773.84      1443.0698     -223330.77     -47932.274    
     16400   1.64           190.84325     -224726.41      1435.8997     -223290.51     -48030.176    
     16600   1.66           189.56042     -224677.04      1426.2478     -223250.8      -48119.872    
     16800   1.68           188.45372     -224628.77      1417.921      -223210.85     -48211.968    
     17000   1.7            187.36856     -224580.24      1409.7563     -223170.48     -48305.354    
     17200   1.72           186.19413     -224531.29      1400.9199     -223130.37     -48416.53     
     17400   1.74           184.37589     -224478.38      1387.2395     -223091.14     -48542.228    
     17600   1.76           182.91584     -224428.7       1376.2541     -223052.45     -48660.493    
     17800   1.78           182.47392     -224386.9       1372.9291     -223013.98     -48795.877    
     18000   1.8            182.25661     -224347.89      1371.2941     -222976.6      -48936.837    
     18200   1.82           181.41287     -224305.56      1364.9458     -222940.62     -49086.955    
     18400   1.84           180.37243     -224262.01      1357.1176     -222904.9      -49234.903    
     18600   1.86           179.76496     -224221.76      1352.547      -222869.22     -49384.445    
     18800   1.88           178.38825     -224176.94      1342.1886     -222834.75     -49527.765    
     19000   1.9            176.26777     -224127.57      1326.2342     -222801.33     -49676.584    
     19200   1.92           174.71518     -224082.48      1314.5526     -222767.92     -49822.342    
     19400   1.94           174.16466     -224044.73      1310.4104     -222734.32     -49965.167    
     19600   1.96           173.93031     -224009.79      1308.6472     -222701.14     -50110.617    
     19800   1.98           172.52773     -223967.98      1298.0942     -222669.89     -50245.873    
     20000   2              170.75793     -223925.28      1284.7783     -222640.5      -50368.755    
     20200   2.02           169.85479     -223889         1277.9831     -222611.02     -50509.922    
     20400   2.04           169.02995     -223852.87      1271.777      -222581.09     -50665.524    
     20600   2.06           167.56069     -223812.68      1260.7223     -222551.96     -50790.694    
     20800   2.08           165.67643     -223770.4       1246.5453     -222523.86     -50899.608    
     21000   2.1            165.05476     -223737.9       1241.8678     -222496.04     -51005.168    
     21200   2.12           164.00144     -223703.05      1233.9426     -222469.1      -51083.155    
     21400   2.14           163.24        -223670.45      1228.2136     -222442.24     -51172.605    
     21600   2.16           163.09636     -223642.66      1227.1328     -222415.53     -51285.404    
     21800   2.18           161.90073     -223608.37      1218.137      -222390.24     -51384.253    
     22000   2.2            160.51548     -223573.56      1207.7144     -222365.84     -51481.257    
     22200   2.22           159.65267     -223542.95      1201.2226     -222341.73     -51580.04     
     22400   2.24           159.30171     -223516.26      1198.582      -222317.67     -51666.643    
     22600   2.26           159.15112     -223491.14      1197.4489     -222293.69     -51757.113    
     22800   2.28           158.33319     -223461.67      1191.2949     -222270.37     -51831.642    
     23000   2.3            156.87349     -223427.77      1180.3121     -222247.45     -51905.264    
     23200   2.32           156.32189     -223400.23      1176.1619     -222224.07     -51989.48     
     23400   2.34           155.89914     -223373.65      1172.9811     -222200.67     -52095.291    
     23600   2.36           155.38342     -223346.34      1169.1009     -222177.24     -52193.808    
     23800   2.38           155.1072      -223320.9       1167.0226     -222153.88     -52261.937    
     24000   2.4            155.25015     -223298.92      1168.0981     -222130.82     -52318.69     
     24200   2.42           154.96636     -223274.39      1165.963      -222108.43     -52403.973    
     24400   2.44           154.45325     -223249.02      1162.1024     -222086.92     -52504.884    
     24600   2.46           154.23128     -223226.67      1160.4322     -222066.24     -52570.885    
     24800   2.48           154.17686     -223206.72      1160.0228     -222046.69     -52593.923    
     25000   2.5            154.15593     -223188.48      1159.8653     -222028.61     -52639.434    
     25200   2.52           153.42743     -223166.58      1154.3841     -222012.19     -52709.756    
     25400   2.54           152.40826     -223143.19      1146.7158     -221996.48     -52746.457    
     25600   2.56           152.26921     -223126.61      1145.6697     -221980.94     -52746.202    
     25800   2.58           152.54061     -223114.55      1147.7117     -221966.84     -52743.967    
     26000   2.6            152.38815     -223101.94      1146.5646     -221955.38     -52730.345    
     26200   2.62           152.0876      -223090.03      1144.3032     -221945.73     -52720.778    
     26400   2.64           151.90035     -223078.88      1142.8944     -221935.99     -52682.992    
     26600   2.66           152.03736     -223069.85      1143.9252     -221925.93     -52639.846    
     26800   2.68           152.3189      -223063.21      1146.0435     -221917.17     -52623.251    
     27000   2.7            151.81183     -223052.93      1142.2283     -221910.7      -52623.892    
     27200   2.72           150.77112     -223039.03      1134.398      -221904.63     -52611.276    
     27400   2.74           151.17134     -223034.31      1137.4093     -221896.9      -52590.4      
     27600   2.76           152.24706     -223034.63      1145.503      -221889.12     -52557.346    
     27800   2.78           152.27159     -223029.3       1145.6876     -221883.61     -52520.213    
     28000   2.8            152.23865     -223025.12      1145.4397     -221879.68     -52511.55     
     28200   2.82           152.4019      -223022.7       1146.668      -221876.03     -52492.93     
     28400   2.84           152.15742     -223017.6       1144.8285     -221872.77     -52456.242    
     28600   2.86           152.0787      -223014.36      1144.2363     -221870.12     -52423.837    
     28800   2.88           152.33071     -223014.04      1146.1324     -221867.91     -52385.134    
     29000   2.9            153.1435      -223017.99      1152.2478     -221865.74     -52348.352    
     29200   2.92           153.56768     -223019.89      1155.4393     -221864.45     -52306.875    
     29400   2.94           153.72299     -223021.06      1156.6078     -221864.45     -52268.279    
     29600   2.96           154.33708     -223026.56      1161.2283     -221865.33     -52219.732    
     29800   2.98           155.3323      -223035.67      1168.7163     -221866.95     -52147.315    
     30000   3              156.23017     -223044.99      1175.4718     -221869.52     -52060.994    
     30200   3.02           156.57011     -223050.88      1178.0295     -221872.85     -52001.176    
     30400   3.04           157.36733     -223059.87      1184.0278     -221875.84     -51950.443    
     30600   3.06           158.1473      -223068.53      1189.8963     -221878.63     -51882.533    
     30800   3.08           158.92019     -223077.44      1195.7115     -221881.73     -51808.35     
     31000   3.1            159.96536     -223089.43      1203.5753     -221885.86     -51757.435    
     31200   3.12           160.68091     -223100.65      1208.959      -221891.69     -51701.463    
     31400   3.14           161.44107     -223113.36      1214.6785     -221898.68     -51617.759    
     31600   3.16           162.12823     -223126.27      1219.8486     -221906.42     -51540.107    
     31800   3.18           162.80678     -223140.29      1224.9541     -221915.34     -51466.879    
     32000   3.2            163.16181     -223153.41      1227.6253     -221925.79     -51396.719    
     32200   3.22           163.9013      -223170.23      1233.1892     -221937.04     -51302.48     
     32400   3.24           164.96694     -223190.35      1241.2071     -221949.14     -51172.443    
     32600   3.26           165.71032     -223209.37      1246.8002     -221962.57     -51045.861    
     32800   3.28           166.21046     -223227.05      1250.5633     -221976.48     -50948.579    
     33000   3.3            167.26314     -223247.95      1258.4836     -221989.47     -50852.933    
     33200   3.32           168.33759     -223268.59      1266.5678     -222002.02     -50751.859    
     33400   3.34           168.89429     -223286.35      1270.7563     -222015.59     -50651.596    
     33600   3.36           169.4741      -223305.46      1275.1188     -222030.35     -50558.524    
     33800   3.38           170.22139     -223326.16      1280.7414     -222045.42     -50457.106    
     34000   3.4            171.35713     -223350.13      1289.2867     -222060.84     -50338.703    
     34200   3.42           172.35328     -223374.28      1296.7817     -222077.5      -50216.583    
     34400   3.44           172.4849      -223393.87      1297.772      -222096.09     -50094.439    
     34600   3.46           172.28769     -223412.36      1296.2882     -222116.07     -49965.469    
     34800   3.48           173.18681     -223438.92      1303.0531     -222135.87     -49837.042    
     35000   3.5            174.61666     -223469.44      1313.8113     -222155.63     -49699.384    
     35200   3.52           175.80799     -223498.46      1322.7749     -222175.68     -49552.542    
     35400   3.54           177.24207     -223529.49      1333.5648     -222195.92     -49420.815    
     35600   3.56           177.69773     -223554.99      1336.9932     -222218        -49293.377    
     35800   3.58           177.89752     -223579.97      1338.4964     -222241.48     -49156.237    
     36000   3.6            179.05198     -223611.49      1347.1825     -222264.31     -49006.181    
     36200   3.62           181.35879     -223650.5       1364.5389     -222285.96     -48872.982    
     36400   3.64           182.77038     -223683.07      1375.1597     -222307.91     -48746.926    
     36600   3.66           183.25799     -223709.29      1378.8285     -222330.47     -48603.333    
     36800   3.68           184.44504     -223740.55      1387.7597     -222352.79     -48492.863    
     37000   3.7            185.61443     -223772         1396.5582     -222375.44     -48366.713    
     37200   3.72           185.771       -223796.41      1397.7363     -222398.68     -48230.518    
     37400   3.74           187.09776     -223828.76      1407.7188     -222421.04     -48157.38     
     37600   3.76           188.7746      -223863.81      1420.3353     -222443.47     -48100.259    
     37800   3.78           189.88882     -223895.6       1428.7186     -222466.88     -48002.134    
     38000   3.8            191.88741     -223934.21      1443.756      -222490.45     -47868.612    
     38200   3.82           193.46058     -223970.83      1455.5924     -222515.24     -47731.152    
     38400   3.84           194.24168     -224003.21      1461.4695     -222541.74     -47589.485    
     38600   3.86           194.8917      -224035.04      1466.3602     -222568.68     -47453.08     
     38800   3.88           196.41477     -224073.02      1477.8197     -222595.2      -47346.223    
     39000   3.9            198.32478     -224113.93      1492.1906     -222621.74     -47228.505    
     39200   3.92           199.21043     -224147.92      1498.8542     -222649.06     -47076.505    
     39400   3.94           200.55981     -224185.65      1509.0069     -222676.64     -46948.361    
     39600   3.96           201.8446      -224223.74      1518.6736     -222705.07     -46838.658    
     39800   3.98           202.71796     -224260.82      1525.2447     -222735.57     -46739.042    
     40000   4              203.96025     -224302.73      1534.5917     -222768.14     -46628.195    
     40200   4.02           205.04429     -224344.44      1542.748      -222801.69     -46497.161    
     40400   4.04           205.8554      -224383.86      1548.8508     -222835.01     -46343.5      
     40600   4.06           206.71306     -224423.44      1555.3038     -222868.13     -46198.691    
     40800   4.08           207.93219     -224465.51      1564.4765     -222901.04     -46089.802    
     41000   4.1            209.62854     -224510.47      1577.2398     -222933.23     -45986.975    
     41200   4.12           211.19573     -224553.96      1589.0313     -222964.92     -45887.45     
     41400   4.14           212.14354     -224593.24      1596.1626     -222997.08     -45781.977    
     41600   4.16           212.12772     -224626.59      1596.0435     -223030.55     -45674.598    
     41800   4.18           213.08715     -224667.42      1603.2623     -223064.16     -45563.208    
     42000   4.2            214.47805     -224711.8       1613.7274     -223098.07     -45452.172    
     42200   4.22           215.30498     -224753.25      1619.9492     -223133.3      -45329.297    
     42400   4.24           216.56489     -224798.62      1629.4287     -223169.19     -45209.284    
     42600   4.26           217.81806     -224844.64      1638.8575     -223205.78     -45073.4      
     42800   4.28           218.61143     -224889         1644.8268     -223244.17     -44928.114    
     43000   4.3            219.10502     -224932.82      1648.5406     -223284.28     -44762.734    
     43200   4.32           220.13283     -224980.97      1656.2738     -223324.69     -44591.89     
     43400   4.34           221.72846     -225032.81      1668.2793     -223364.53     -44437.704    
     43600   4.36           222.40161     -225077.34      1673.344      -223403.99     -44290.971    
     43800   4.38           223.41044     -225123.71      1680.9344     -223442.77     -44142.23     
     44000   4.4            224.34204     -225170.01      1687.9438     -223482.07     -43986.377    
     44200   4.42           225.20507     -225216.78      1694.4372     -223522.34     -43815.073    
     44400   4.44           225.81193     -225262.78      1699.0032     -223563.78     -43666.29     
     44600   4.46           226.12422     -225308.29      1701.3529     -223606.94     -43499.238    
     44800   4.48           226.59379     -225356.23      1704.8859     -223651.34     -43308.03     
     45000   4.5            227.21794     -225405.72      1709.582      -223696.13     -43100.932    
     45200   4.52           228.78104     -225461.79      1721.3427     -223740.44     -42916.709    
     45400   4.54           229.8836      -225514.87      1729.6384     -223785.23     -42712.542    
     45600   4.56           229.92331     -225560.08      1729.9371     -223830.14     -42497.433    
     45800   4.58           230.24524     -225606.44      1732.3593     -223874.08     -42305.461    
     46000   4.6            230.89163     -225655.53      1737.2227     -223918.3      -42136.685    
     46200   4.62           231.17355     -225703.55      1739.3439     -223964.21     -41962.632    
     46400   4.64           231.77266     -225755.51      1743.8516     -224011.65     -41756.788    
     46600   4.66           232.66188     -225810.75      1750.5421     -224060.21     -41537.99     
     46800   4.68           233.218       -225864.52      1754.7263     -224109.79     -41314.658    
     47000   4.7            234.07213     -225920.8       1761.1527     -224159.64     -41086.772    
     47200   4.72           234.33578     -225972.56      1763.1365     -224209.43     -40852.807    
     47400   4.74           235.34019     -226029         1770.6936     -224258.31     -40622.733    
     47600   4.76           236.04613     -226082.96      1776.0051     -224306.95     -40394.686    
     47800   4.78           235.96913     -226131.1       1775.4257     -224355.67     -40165.89     
     48000   4.8            236.83048     -226185.91      1781.9065     -224404        -39956.076    
     48200   4.82           236.94729     -226235.77      1782.7854     -224452.99     -39729.263    
     48400   4.84           236.77887     -226284.21      1781.5182     -224502.69     -39503.052    
     48600   4.86           237.64125     -226341.18      1788.0067     -224553.17     -39281.778    
     48800   4.88           237.88245     -226394.49      1789.8215     -224604.67     -39025.59     
     49000   4.9            237.73494     -226444.7       1788.7117     -224655.99     -38734.804    
     49200   4.92           236.99852     -226490.4       1783.1709     -224707.23     -38470.703    
     49400   4.94           236.83303     -226540.14      1781.9257     -224758.21     -38235.356    
     49600   4.96           237.52268     -226596.59      1787.1146     -224809.48     -37988.662    
     49800   4.98           238.24914     -226654.47      1792.5805     -224861.89     -37710.041    
     50000   5              238.6707      -226710.41      1795.7523     -224914.66     -37421.96     
     50200   5.02           238.62749     -226762.71      1795.4272     -224967.28     -37128.67     
     50400   5.04           237.16116     -226804.76      1784.3945     -225020.37     -36812.308    
     50600   5.06           235.97229     -226847.93      1775.4495     -225072.48     -36490.224    
     50800   5.08           236.82477     -226904.1       1781.8635     -225122.23     -36189.376    
     51000   5.1            237.02799     -226955.1       1783.3925     -225171.71     -35891.002    
     51200   5.12           235.78594     -226995.76      1774.0474     -225221.71     -35549.739    
     51400   5.14           235.03848     -227039.08      1768.4235     -225270.66     -35216.522    
     51600   5.16           234.48884     -227083.78      1764.288      -225319.49     -34903.164    
     51800   5.18           233.25227     -227123.88      1754.9841     -225368.9      -34554.602    
     52000   5.2            232.9104      -227168.99      1752.4119     -225416.58     -34194.146    
     52200   5.22           232.92295     -227215.27      1752.5064     -225462.76     -33836.63     
     52400   5.24           231.56602     -227250.72      1742.2968     -225508.42     -33471.924    
     52600   5.26           231.59167     -227293.93      1742.4898     -225551.44     -33150.409    
     52800   5.28           231.59062     -227335.5       1742.4819     -225593.02     -32856.008    
     53000   5.3            229.80017     -227363.79      1729.0107     -225634.78     -32494.901    
     53200   5.32           229.35987     -227400.85      1725.6978     -225675.15     -32121.473    
     53400   5.34           230.57088     -227449.88      1734.8094     -225715.07     -31762.634    
     53600   5.36           228.96267     -227479.83      1722.7093     -225757.12     -31383.626    
     53800   5.38           227.10793     -227507.73      1708.7543     -225798.97     -30987.17     
     54000   5.4            226.96618     -227546.56      1707.6878     -225838.87     -30623.854    
     54200   5.42           225.59606     -227575.62      1697.379      -225878.24     -30252.05     
     54400   5.44           224.19863     -227603.23      1686.8648     -225916.36     -29889.228    
     54600   5.46           222.80039     -227630.45      1676.3445     -225954.1      -29522.863    
     54800   5.48           221.3704      -227657.91      1665.5853     -225992.32     -29157.069    
     55000   5.5            221.10816     -227693.87      1663.6122     -226030.26     -28826.367    
     55200   5.52           220.59152     -227728.67      1659.725      -226068.95     -28482.347    
     55400   5.54           217.4356      -227744.26      1635.9799     -226108.28     -28092.982    
     55600   5.56           216.23987     -227771.11      1626.9833     -226144.12     -27775.536    
     55800   5.58           215.10779     -227797.06      1618.4655     -226178.59     -27506.361    
     56000   5.6            212.59405     -227812.74      1599.5522     -226213.19     -27239.341    
     56200   5.62           211.8721      -227839.69      1594.1203     -226245.57     -26980.989    
     56400   5.64           211.44201     -227868.47      1590.8843     -226277.58     -26707.159    
     56600   5.66           209.93154     -227889.07      1579.5195     -226309.55     -26409.315    
     56800   5.68           209.32418     -227913.43      1574.9498     -226338.48     -26209.097    
     57000   5.7            209.08107     -227937.69      1573.1206     -226364.56     -26039.198    
     57200   5.72           206.87444     -227945.5       1556.518      -226388.98     -25854.611    
     57400   5.74           205.56611     -227956.08      1546.6742     -226409.4      -25696.005    
     57600   5.76           204.75928     -227967.3       1540.6036     -226426.7      -25575.994    
     57800   5.78           204.48484     -227979.9       1538.5387     -226441.36     -25471.673    
     58000   5.8            204.9347      -227995.49      1541.9234     -226453.57     -25416.327    
     58200   5.82           204.73003     -228004.26      1540.3835     -226463.88     -25374.852    
     58400   5.84           204.91372     -228011.6       1541.7656     -226469.83     -25361.089    
     58600   5.86           204.29969     -228008.28      1537.1457     -226471.14     -25336.205    
     58800   5.88           203.13338     -227997.26      1528.3704     -226468.89     -25384.17     
     59000   5.9            204.51145     -227999.62      1538.739      -226460.88     -25472.816    
     59200   5.92           206.30361     -228000.24      1552.2231     -226448.02     -25592.467    
     59400   5.94           206.45836     -227985.29      1553.3875     -226431.91     -25730.404    
     59600   5.96           206.17189     -227963.53      1551.2321     -226412.29     -25908.117    
     59800   5.98           206.98408     -227946.13      1557.3429     -226388.78     -26115.108    
     60000   6              208.75713     -227933.95      1570.6833     -226363.27     -26343.066    
     60200   6.02           209.34172     -227912.23      1575.0817     -226337.15     -26558.726    
     60400   6.04           209.74942     -227886.22      1578.1493     -226308.07     -26788.337    
     60600   6.06           212.00279     -227870.48      1595.1036     -226275.37     -27061.522    
     60800   6.08           213.38134     -227848.26      1605.4758     -226242.78     -27344.578    
     61000   6.1            214.23883     -227822.49      1611.9275     -226210.57     -27618.828    
     61200   6.12           215.38469     -227798.52      1620.5489     -226177.97     -27888.101    
     61400   6.14           215.85992     -227769.43      1624.1245     -226145.31     -28181.495    
     61600   6.16           217.62194     -227748.05      1637.3819     -226110.67     -28501.857    
     61800   6.18           221.72706     -227742.19      1668.2688     -226073.92     -28851.557    
     62000   6.2            222.99711     -227716.86      1677.8246     -226039.03     -29183.785    
     62200   6.22           222.26403     -227676.22      1672.3089     -226003.91     -29505.74     
     62400   6.24           223.92784     -227650.51      1684.8274     -225965.68     -29867.735    
     62600   6.26           225.64556     -227625.56      1697.7514     -225927.81     -30228.567    
     62800   6.28           226.57674     -227595.6       1704.7576     -225890.84     -30569.32     
     63000   6.3            228.8597      -227574.46      1721.9345     -225852.53     -30950.031    
     63200   6.32           229.58674     -227542.35      1727.4048     -225814.94     -31324.505    
     63400   6.34           230.02014     -227507.73      1730.6657     -225777.07     -31681.547    
     63600   6.36           231.98633     -227483.07      1745.4592     -225737.61     -32051.446    
     63800   6.38           232.8054      -227449.83      1751.6219     -225698.21     -32438.388    
     64000   6.4            233.11852     -227412.03      1753.9778     -225658.05     -32827.977    
     64200   6.42           233.15977     -227371.55      1754.2881     -225617.26     -33194.841    
     64400   6.44           232.6919      -227328.09      1750.7679     -225577.32     -33555.611    
     64600   6.46           233.61547     -227294.4       1757.7168     -225536.68     -33959.35     
     64800   6.48           234.09597     -227257.02      1761.3321     -225495.69     -34332.128    
     65000   6.5            234.41144     -227217.14      1763.7057     -225453.43     -34704.397    
     65200   6.52           234.59723     -227174.23      1765.1036     -225409.13     -35113.186    
     65400   6.54           234.48908     -227127.95      1764.2899     -225363.66     -35492.065    
     65600   6.56           234.72614     -227082.83      1766.0735     -225316.76     -35856.037    
     65800   6.58           235.25179     -227039.02      1770.0285     -225268.99     -36251.03     
     66000   6.6            235.04336     -226989.86      1768.4602     -225221.4      -36666.556    
     66200   6.62           234.58403     -226938.64      1765.0043     -225173.64     -37056.923    
     66400   6.64           234.43455     -226889.81      1763.8796     -225125.93     -37408.361    
     66600   6.66           233.37016     -226835.88      1755.8712     -225080.01     -37694.864    
     66800   6.68           232.54217     -226784.91      1749.6413     -225035.27     -37977.37     
     67000   6.7            231.96392     -226735.24      1745.2907     -224989.95     -38289.889    
     67200   6.72           232.13142     -226689.33      1746.5509     -224942.78     -38618.41     
     67400   6.74           232.17234     -226641.93      1746.8588     -224895.07     -38936.817    
     67600   6.76           230.20791     -226581.23      1732.0785     -224849.15     -39203.104    
     67800   6.78           228.97429     -226526.83      1722.7967     -224804.03     -39469.778    
     68000   6.8            228.90162     -226482.67      1722.25       -224760.42     -39733.121    
     68200   6.82           228.07081     -226435.92      1715.9989     -224719.93     -39951.234    
     68400   6.84           226.38931     -226383.86      1703.3474     -224680.51     -40120.022    
     68600   6.86           226.62393     -226343.97      1705.1126     -224638.86     -40339.377    
     68800   6.88           226.02446     -226298.12      1700.6023     -224597.52     -40551.769    
     69000   6.9            223.4889      -226239.1       1681.5248     -224557.58     -40732.978    
     69200   6.92           223.15992     -226195.61      1679.0495     -224516.56     -40933.605    
     69400   6.94           223.65837     -226158.31      1682.7999     -224475.51     -41122.475    
     69600   6.96           223.04335     -226113.96      1678.1725     -224435.79     -41297.751    
     69800   6.98           222.1978      -226068.97      1671.8106     -224397.16     -41468.247    
     70000   7              221.82162     -226028.5       1668.9802     -224359.52     -41636.434    
     70200   7.02           221.04761     -225986.35      1663.1566     -224323.2      -41785.846    
     70400   7.04           219.48727     -225939.74      1651.4166     -224288.32     -41928.8      
     70600   7.06           218.79027     -225899.91      1646.1724     -224253.73     -42082.077    
     70800   7.08           218.89098     -225866.53      1646.9302     -224219.59     -42236.205    
     71000   7.1            218.29996     -225830.16      1642.4833     -224187.68     -42384.351    
     71200   7.12           217.35885     -225793.52      1635.4024     -224158.12     -42510.743    
     71400   7.14           216.70378     -225759.92      1630.4737     -224129.44     -42649.252    
     71600   7.16           216.19286     -225727.7       1626.6296     -224101.07     -42778.492    
     71800   7.18           216.52678     -225702.95      1629.142      -224073.81     -42900.305    
     72000   7.2            215.77854     -225673.71      1623.5122     -224050.2      -43028.256    
     72200   7.22           213.93011     -225639.16      1609.6047     -224029.55     -43097.059    
     72400   7.24           212.88265     -225611.21      1601.7237     -224009.48     -43159.435    
     72600   7.26           212.38358     -225587.8       1597.9686     -223989.84     -43230.94     
     72800   7.28           212.03447     -225566.06      1595.342      -223970.72     -43312.976    
     73000   7.3            212.12817     -225547.83      1596.0469     -223951.78     -43421.757    
     73200   7.32           211.55603     -225525.55      1591.7421     -223933.81     -43505.17     
     73400   7.34           209.42365     -225493.06      1575.6982     -223917.36     -43565.668    
     73600   7.36           208.5338      -225469.35      1569.003      -223900.34     -43641.406    
     73800   7.38           209.64211     -225460.01      1577.3419     -223882.66     -43744.056    
     74000   7.4            208.93089     -225439.28      1571.9907     -223867.29     -43802.594    
     74200   7.42           206.92495     -225409.97      1556.898      -223853.07     -43814.799    
     74400   7.44           207.00124     -225394.66      1557.4721     -223837.19     -43880.742    
     74600   7.46           207.27626     -225381.17      1559.5413     -223821.63     -43950.567    
     74800   7.48           206.08181     -225358.21      1550.5543     -223807.66     -44003.619    
     75000   7.5            205.66414     -225340.76      1547.4117     -223793.35     -44053.518    
     75200   7.52           205.37131     -225324.04      1545.2085     -223778.83     -44111.861    
     75400   7.54           204.36918     -225301.79      1537.6685     -223764.12     -44145.585    
     75600   7.56           204.37594     -225285.9       1537.7193     -223748.18     -44204.025    
     75800   7.58           205.01611     -225274.45      1542.536      -223731.91     -44267.616    
     76000   7.6            204.39492     -225254.73      1537.8622     -223716.87     -44302.366    
     76200   7.62           203.55253     -225233.88      1531.5241     -223702.35     -44331.238    
     76400   7.64           202.99895     -225215.06      1527.3589     -223687.7      -44389.752    
     76600   7.66           202.95048     -225200.17      1526.9942     -223673.17     -44457.706    
     76800   7.68           202.25726     -225181.41      1521.7785     -223659.63     -44495.065    
     77000   7.7            201.76113     -225164.1       1518.0456     -223646.06     -44528.557    
     77200   7.72           202.49666     -225154.94      1523.5797     -223631.36     -44587.858    
     77400   7.74           202.61775     -225141.55      1524.4908     -223617.06     -44652.381    
     77600   7.76           200.96929     -225116.7       1512.0878     -223604.61     -44715.129    
     77800   7.78           199.91988     -225096.77      1504.1921     -223592.57     -44789.215    
     78000   7.8            200.24521     -225086.65      1506.6399     -223580.01     -44844.907    
     78200   7.82           199.9247      -225072.5       1504.2283     -223568.27     -44879.653    
     78400   7.84           199.61722     -225058.99      1501.9149     -223557.08     -44903.443    
     78600   7.86           200.10758     -225051.21      1505.6043     -223545.6      -44939.626    
     78800   7.88           199.72069     -225037.86      1502.6934     -223535.17     -44975.144    
     79000   7.9            198.80294     -225022.06      1495.7882     -223526.27     -44987.45     
     79200   7.92           198.28102     -225010.66      1491.8613     -223518.8      -44994.595    
     79400   7.94           198.23509     -225003.24      1491.5157     -223511.73     -45002.922    
     79600   7.96           198.8368      -224999.37      1496.043      -223503.33     -45004.788    
     79800   7.98           199.4254      -224994.47      1500.4716     -223494        -45045.265    
     80000   8              199.07705     -224983.58      1497.8507     -223485.73     -45095.738    
     80200   8.02           197.9179      -224968.23      1489.1293     -223479.11     -45117.453    
     80400   8.04           197.9825      -224961.29      1489.6153     -223471.68     -45142.484    
     80600   8.06           199.64832     -224965.46      1502.1489     -223463.31     -45198.395    
     80800   8.08           199.62941     -224958.98      1502.0066     -223456.97     -45232.535    
     81000   8.1            198.50569     -224945.7       1493.5517     -223452.15     -45259.227    
     81200   8.12           198.34998     -224939.09      1492.3802     -223446.71     -45297.931    
     81400   8.14           198.09855     -224931.44      1490.4884     -223440.96     -45323.312    
     81600   8.16           198.3317      -224927.42      1492.2427     -223435.18     -45364.703    
     81800   8.18           198.60959     -224924.23      1494.3335     -223429.89     -45382.158    
     82000   8.2            198.6149      -224919.73      1494.3734     -223425.36     -45384.298    
     82200   8.22           199.0537      -224919.06      1497.675      -223421.38     -45379.915    
     82400   8.24           198.66379     -224913.39      1494.7413     -223418.65     -45391.596    
     82600   8.26           198.23852     -224908.02      1491.5416     -223416.48     -45409.126    
     82800   8.28           198.5486      -224907.55      1493.8746     -223413.67     -45446.924    
     83000   8.3            198.8344      -224907.18      1496.0249     -223411.15     -45492.107    
     83200   8.32           197.99796     -224900.56      1489.7316     -223410.83     -45506.981    
     83400   8.34           197.44128     -224897.03      1485.5432     -223411.48     -45495.185    
     83600   8.36           198.73808     -224906.32      1495.3002     -223411.02     -45490.085    
     83800   8.38           198.42299     -224903.72      1492.9295     -223410.79     -45488.954    
     84000   8.4            196.7615      -224891.47      1480.4285     -223411.04     -45490.737    
     84200   8.42           197.45919     -224895.77      1485.6779     -223410.09     -45546.445    
     84400   8.44           198.67393     -224904.05      1494.8176     -223409.23     -45595.444    
     84600   8.46           198.58328     -224904.49      1494.1355     -223410.35     -45604.7      
     84800   8.48           197.68374     -224900.89      1487.3674     -223413.52     -45601.112    
     85000   8.5            196.81974     -224898.57      1480.8667     -223417.71     -45586.355    
     85200   8.52           196.90653     -224902.96      1481.5197     -223421.44     -45579.001    
     85400   8.54           198.00929     -224914.48      1489.8168     -223424.66     -45583.795    
     85600   8.56           198.3441      -224921.62      1492.336      -223429.28     -45563.421    
     85800   8.58           197.44253     -224920.95      1485.5525     -223435.39     -45513.831    
     86000   8.6            196.92117     -224922.84      1481.6299     -223441.21     -45480.396    
     86200   8.62           197.82733     -224934.64      1488.4478     -223446.19     -45473.343    
     86400   8.64           198.17824     -224941.78      1491.088      -223450.69     -45461.378    
     86600   8.66           197.87837     -224942.49      1488.8318     -223453.65     -45456.068    
     86800   8.68           198.14736     -224946.07      1490.8557     -223455.21     -45490.072    
     87000   8.7            198.44137     -224951.04      1493.0678     -223457.98     -45485.027    
     87200   8.72           198.11112     -224954.02      1490.583      -223463.44     -45445.392    
     87400   8.74           198.79159     -224966.37      1495.7028     -223470.67     -45411.593    
     87600   8.76           199.92182     -224983.25      1504.2067     -223479.04     -45365.707    
     87800   8.78           199.85573     -224991.2       1503.7095     -223487.49     -45327.575    
     88000   8.8            199.00361     -224992.08      1497.2981     -223494.78     -45291.768    
     88200   8.82           198.23451     -224993.42      1491.5114     -223501.91     -45237.934    
     88400   8.84           198.37799     -225002.57      1492.5909     -223509.98     -45181.009    
     88600   8.86           199.63446     -225020.95      1502.0446     -223518.91     -45146.5      
     88800   8.88           201.01145     -225041.41      1512.405      -223529.01     -45102.15     
     89000   8.9            201.563       -225057.65      1516.5549     -223541.1      -45046.113    
     89200   8.92           200.72818     -225065.39      1510.2737     -223555.12     -44963.869    
     89400   8.94           200.57638     -225078.24      1509.1315     -223569.11     -44868.066    
     89600   8.96           201.04289     -225094.73      1512.6416     -223582.09     -44795.113    
     89800   8.98           201.59152     -225111.38      1516.7695     -223594.61     -44749.982    
     90000   9              201.86368     -225126.12      1518.8172     -223607.3      -44711.12     
     90200   9.02           202.09085     -225141.46      1520.5264     -223620.93     -44639.74     
     90400   9.04           203.14442     -225163.86      1528.4535     -223635.4      -44584.096    
     90600   9.06           203.46755     -225182.43      1530.8847     -223651.55     -44534.595    
     90800   9.08           202.3793      -225191.73      1522.6967     -223669.03     -44438.98     
     91000   9.1            202.37792     -225207.32      1522.6863     -223684.63     -44354.686    
     91200   9.12           203.52285     -225229.08      1531.3007     -223697.78     -44278.285    
     91400   9.14           203.61933     -225243.03      1532.0267     -223711.01     -44191.539    
     91600   9.16           203.64588     -225257.3       1532.2264     -223725.07     -44105.932    
     91800   9.18           205.03706     -225281.82      1542.6936     -223739.13     -44016.299    
     92000   9.2            205.52034     -225300.96      1546.3298     -223754.63     -43907.722    
     92200   9.22           205.5605      -225318.33      1546.632      -223771.7      -43805.46     
     92400   9.24           205.86733     -225337.7       1548.9405     -223788.76     -43716.175    
     92600   9.26           206.22922     -225356.42      1551.6634     -223804.76     -43627.264    
     92800   9.28           207.01065     -225377.67      1557.5429     -223820.13     -43519.187    
     93000   9.3            206.89906     -225393.59      1556.7032     -223836.89     -43410.658    
     93200   9.32           206.67986     -225410.46      1555.054      -223855.41     -43296.406    
     93400   9.34           208.14682     -225440.34      1566.0914     -223874.25     -43188.274    
     93600   9.36           209.57561     -225470.58      1576.8416     -223893.73     -43076.2      
     93800   9.38           209.79103     -225492.89      1578.4623     -223914.43     -42929.236    
     94000   9.4            209.39585     -225511         1575.489      -223935.52     -42783.527    
     94200   9.42           209.47933     -225532.38      1576.1171     -223956.26     -42656.927    
     94400   9.44           210.51594     -225560.76      1583.9166     -223976.84     -42516.511    
     94600   9.46           211.41968     -225589.05      1590.7163     -223998.34     -42377.942    
     94800   9.48           211.88983     -225615.12      1594.2537     -224020.87     -42258.233    
     95000   9.5            212.19777     -225640.12      1596.5707     -224043.55     -42140.879    
     95200   9.52           212.46384     -225664.33      1598.5725     -224065.75     -42014.243    
     95400   9.54           212.50881     -225686.43      1598.9109     -224087.52     -41881.832    
     95600   9.56           212.27626     -225706.49      1597.1611     -224109.32     -41766.003    
     95800   9.58           212.27457     -225729.12      1597.1484     -224131.97     -41645.207    
     96000   9.6            213.70671     -225763.03      1607.9238     -224155.1      -41538.82     
     96200   9.62           215.416       -225800.38      1620.7845     -224179.6      -41447.909    
     96400   9.64           215.83149     -225829.64      1623.9106     -224205.73     -41317.873    
     96600   9.66           214.76777     -225847.56      1615.9072     -224231.66     -41144.251    
     96800   9.68           213.66881     -225863.55      1607.6386     -224255.91     -40970.796    
     97000   9.7            214.89137     -225894.9       1616.8372     -224278.06     -40853.445    
     97200   9.72           215.75145     -225923.79      1623.3084     -224300.48     -40730.039    
     97400   9.74           215.16142     -225942.23      1618.869      -224323.36     -40609.423    
     97600   9.76           216.31563     -225972.36      1627.5533     -224344.8      -40511.798    
     97800   9.78           216.55917     -225996.31      1629.3856     -224366.93     -40392.482    
     98000   9.8            216.02843     -226016.03      1625.3924     -224390.63     -40249.59     
     98200   9.82           216.48985     -226044.16      1628.8641     -224415.3      -40116.837    
     98400   9.84           218.28042     -226082.61      1642.3363     -224440.27     -39987.74     
     98600   9.86           219.42915     -226116.83      1650.9794     -224465.85     -39859.899    
     98800   9.88           218.81505     -226138.32      1646.3589     -224491.96     -39695.61     
     99000   9.9            218.6664      -226162.47      1645.2404     -224517.23     -39522.859    
     99200   9.92           219.1379      -226190.62      1648.788      -224541.83     -39372.106    
     99400   9.94           219.83248     -226219.66      1654.014      -224565.65     -39258.711    
     99600   9.96           220.35244     -226246.82      1657.9261     -224588.9      -39166.81     
     99800   9.98           220.23667     -226269.35      1657.0551     -224612.29     -39027.058    
    100000   10             220.44805     -226294.28      1658.6455     -224635.64     -38876.372    
Loop time of 135.723 on 1 procs for 100000 steps with 58209 atoms

Performance: 6.366 ns/day, 3.770 hours/ns, 736.795 timesteps/s, 42.888 Matom-step/s
98.6% CPU use with 1 MPI tasks x 1 OpenMP threads

MPI task timing breakdown:
Section |  min time  |  avg time  |  max time  |%varavg| %total
---------------------------------------------------------------
Pair    | 60.988     | 60.988     | 60.988     |   0.0 | 44.94
Neigh   | 0.075617   | 0.075617   | 0.075617   |   0.0 |  0.06
Comm    | 0.45535    | 0.45535    | 0.45535    |   0.0 |  0.34
Output  | 23.105     | 23.105     | 23.105     |   0.0 | 17.02
Modify  | 47.483     | 47.483     | 47.483     |   0.0 | 34.99
Other   |            | 3.616      |            |       |  2.66

Nlocal:          58209 ave       58209 max       58209 min
Histogram: 1 0 0 0 0 0 0 0 0 0
Nghost:          19511 ave       19511 max       19511 min
Histogram: 1 0 0 0 0 0 0 0 0 0
Neighs:              0 ave           0 max           0 min
Histogram: 1 0 0 0 0 0 0 0 0 0
FullNghs:  1.08836e+07 ave 1.08836e+07 max 1.08836e+07 min
Histogram: 1 0 0 0 0 0 0 0 0 0

Total # of neighbors = 10883608
Ave neighs/atom = 186.97466
Neighbor list builds = 146
Dangerous builds = 0
System init for write_restart ...
Total wall time: 0:02:19
