
Lmod is automatically replacing "gcc/12.3" with "intel/2023.2.1".


Due to MODULEPATH changes, the following have been reloaded:
  1) aocl-blas/5.1     2) aocl-lapack/5.1     3) flexiblas/3.3.1     4) openmpi/4.1.5

LAMMPS (22 Jul 2025 - Development - patch_22Jul2025-72-g8b7fdf9ad3)
KOKKOS mode with Kokkos version 4.6.2 is enabled
  will use up to 1 GPU(s) per node
  using 1 OpenMP thread(s) per MPI task
WARNING: Detected non-ASCII characters in input. Will try to continue by replacing with ASCII equivalents where known. (src/input.cpp:478)
Created orthogonal box = (-150 -0.5 0) to (150 0.5 840)
  1 by 1 by 1 MPI processor grid
Lattice spacing in x,y,z = 2.866 2.866 2.866
Created 6615 atoms
  using lattice units in orthogonal box = (-150 -0.5 -0.084) to (150 0.5 840.084)
  create_atoms CPU = 0.004 seconds
Lattice spacing in x,y,z = 4.05 4.05 4.05
Created 347 atoms
  using lattice units in orthogonal box = (-150 -0.5 -0.084) to (150 0.5 840.084)
  create_atoms CPU = 0.001 seconds
347 atoms in group particle_group
6615 atoms in group substrate_group
2205 atoms in group frozen_atoms
1155 atoms in group thermostat_atoms
3255 atoms in group mobile_atoms
3602 atoms in group nve_atoms
Reading eam/fs potential file /home/wuwen123/comp/yao/lammps/potentials/AlFe_mm.eam.fs with DATE: 2007-06-11
Neighbor list info ...
  update: every = 1 steps, delay = 0 steps, check = yes
  max neighbors/atom: 2000, page size: 100000
  master list distance cutoff = 8.5
  ghost atom cutoff = 8.5
  binsize = 8.5, bins = 36 1 99
  2 neighbor lists, perpetual/occasional/extra = 2 0 0
  (1) pair eam/fs, perpetual
      attributes: full, newton off, kokkos_device, cut 8.5
      pair build: full/bin/kk/device
      stencil: full/bin/3d
      bin: kk/device
  (2) pair lj/cut, perpetual, copy from (1)
      attributes: full, newton off, kokkos_device
      pair build: copy/kk/device
      stencil: none
      bin: none
WARNING: Proc sub-domain size < neighbor skin, could lead to lost atoms (src/domain.cpp:1204)
Setting up Verlet run ...
  Unit style    : metal
  Current step  : 0
  Time step     : 0.001
WARNING: Required border comm not yet implemented in Kokkos communication, switching to classic exchange/border communication (src/KOKKOS/comm_kokkos.cpp:1089)
Per MPI rank memory allocation (min/avg/max) = 24.72 | 24.72 | 24.72 Mbytes
   Step           Dt            Time           Temp          TotEng         KinEng         PotEng         Press          Volume        Density    
         0   0.001          0              140.23847      797616.26      126.18375      797490.08      26765223       80847.9        7.7797246    
       200   0.001          0.2            83224.331      866160.96      74883.578      791277.38      27002600       80847.9        7.7797246    
       400   0.001          0.4            131265.46      906014.85      118110.02      787904.82      26732558       81905.301      7.679288     
       600   0.001          0.6            139707.42      913166.36      125705.92      787460.44      22413954       97619.62       6.4431146    
       800   0.001          0.8            139479.12      912995.88      125500.51      787495.38      19306428       113230.62      5.5548083    
      1000   0.001          1              138088.77      911795.88      124249.5       787546.38      16968657       128738.02      4.8856925    
      1200   0.001          1.2            136452.96      910355.26      122777.62      787577.63      15143664       144149.3       4.3633537    
      1400   0.001          1.4            134551.19      908660.15      121066.45      787593.7       13678586       159457.49      3.9444644    
      1600   0.001          1.6            132460.46      906794.22      119185.25      787608.97      12477401       174650.42      3.6013335    
      1800   0.001          1.8            130272.14      904833.31      117216.25      787617.06      11475503       189720.02      3.315277     
      2000   0.001          2              128056.7       902844.86      115222.84      787622.02      10631266       204588.15      3.0743443    
      2200   0.001          2.2            125827.29      900843.18      113216.87      787626.31      9903766.2      219402.08      2.8667659    
      2400   0.001          2.4            123591.33      898835.24      111204.99      787630.25      9273447.3      234085.03      2.6869484    
      2600   0.001          2.6            121357.01      896828.78      109194.6       787634.18      8722190.4      248635.6       2.5297037    
      2800   0.001          2.8            119127.22      894824.59      107188.28      787636.31      8236044.6      263052.83      2.3910573    
      3000   0.001          3              116909.84      892830.35      105193.12      787637.23      7804208.1      277336.13      2.2679137    
      3200   0.001          3.2            114712.41      890855.45      103215.92      787639.53      7418198.5      291485.19      2.1578263    
      3400   0.001          3.4            112535.9       888899.18      101257.54      787641.65      7071076.6      305499.98      2.0588361    
      3600   0.001          3.6            110383.64      886962.04      99320.977      787641.06      6757288.7      319380.68      1.9693564    
      3800   0.001          3.8            108261.55      885053.66      97411.561      787642.1       6472322.9      333127.65      1.8880883    
      4000   0.001          4              106166.33      883170.24      95526.325      787643.91      6212444.1      346741.39      1.8139582    
      4200   0.001          4.2            104105.22      881315.84      93671.78       787644.06      5974445.7      360222.57      1.7460716    
      4400   0.001          4.4            102074.4       879489.66      91844.489      787645.17      5755749.8      373571.93      1.6836768    
      4600   0.001          4.6            100080.15      877695.82      90050.102      787645.72      5554094.5      386790.35      1.6261378    
      4800   0.001          4.8            98117.751      875930.72      88284.377      787646.34      5367611.9      399878.78      1.5729127    
      5000   0.001          5              96192.237      874198.98      86551.839      787647.14      5194639.7      412838.24      1.5235372    
      5200   0.001          5.2            94302.506      872497.78      84851.496      787646.29      5033770.6      425669.81      1.477611     
      5400   0.001          5.4            92447.926      870829.72      83182.783      787646.93      4883827.8      438374.63      1.4347874    
      5600   0.001          5.6            90629.675      869194.46      81546.757      787647.71      4743728.2      450953.9       1.3947643    
      5800   0.001          5.8            88847.002      867590.76      79942.744      787648.01      4612542.1      463408.82      1.3572776    
      6000   0.001          6              87099.602      866019.28      78370.469      787648.81      4489462.4      475740.67      1.3220951    
      6200   0.001          6.2            85388.635      864478.54      76830.975      787647.57      4373733        487950.73      1.2890121    
      6400   0.001          6.4            83712.856      862971.82      75323.143      787648.68      4264780.1      500040.3       1.2578474    
      6600   0.001          6.6            82071.508      861495.47      73846.29       787649.18      4160549.8      512189.37      1.2280114    
      6800   0.001          6.8            80465          860049.87      72400.787      787649.08      4064430.3      523922.27      1.2005109    
      7000   0.001          7              78893.191      858635.57      70986.505      787649.07      3973427.7      535541.03      1.1744654    
      7200   0.001          7.2            77354.161      857251.29      69601.717      787649.58      3884694.8      547393.87      1.1490344    
      7400   0.001          7.4            75849.634      855896.86      68247.974      787648.89      3802906.1      558784.93      1.1256109    
      7600   0.001          7.6            74377.117      854571.83      66923.032      787648.8       3725169.4      570065.84      1.1033364    
      7800   0.001          7.8            72935.997      853275.38      65626.342      787649.04      3649072.5      581574.79      1.0815022    
      8000   0.001          8              71527.145      852008.57      64358.686      787649.89      3578688.6      592636.14      1.0613163    
      8200   0.001          8.2            70149.885      850768.19      63119.454      787648.73      3511527.5      603591.34      1.0420534    
      8400   0.001          8.4            68801.924      849555.73      61906.587      787649.14      3445582.9      614768.9       1.0231071    
      8600   0.001          8.6            67484.849      848370.91      60721.508      787649.4       3384377.3      625512.63      1.0055343    
      8800   0.001          8.8            66195.412      847211.82      59561.299      787650.52      3325830.6      636154.18      0.98871377   
      9000   0.001          9              64937.223      846079.28      58429.206      787650.07      3268133.2      647012.69      0.97212065   
      9200   0.001          9.2            63705.39       844971.22      57320.828      787650.39      3214449.4      657450.74      0.95668673   
      9400   0.001          9.4            62500.925      843887.03      56237.074      787649.96      3162945.8      667790.48      0.94187386   
      9600   0.001          9.6            61323.954      842827.48      55178.06       787649.42      3112071.4      678342.06      0.92722306   
      9800   0.001          9.8            60172.371      841791.19      54141.888      787649.3       3064613.4      688486.07      0.91356154   
     10000   0.001          10             59047.749      840779.68      53129.975      787649.7       3018977.4      698535.56      0.90041858   
Loop time of 24.8236 on 1 procs for 10000 steps with 6962 atoms

Performance: 34.806 ns/day, 0.690 hours/ns, 402.843 timesteps/s, 2.805 Matom-step/s
97.8% CPU use with 1 MPI tasks x 1 OpenMP threads

MPI task timing breakdown:
Section |  min time  |  avg time  |  max time  |%varavg| %total
---------------------------------------------------------------
Pair    | 12.979     | 12.979     | 12.979     |   0.0 | 52.29
Neigh   | 2.5995     | 2.5995     | 2.5995     |   0.0 | 10.47
Comm    | 5.529      | 5.529      | 5.529      |   0.0 | 22.27
Output  | 0.28121    | 0.28121    | 0.28121    |   0.0 |  1.13
Modify  | 1.6826     | 1.6826     | 1.6826     |   0.0 |  6.78
Other   |            | 1.752      |            |       |  7.06

Nlocal:           6962 ave        6962 max        6962 min
Histogram: 1 0 0 0 0 0 0 0 0 0
Nghost:         128859 ave      128859 max      128859 min
Histogram: 1 0 0 0 0 0 0 0 0 0
Neighs:              0 ave           0 max           0 min
Histogram: 1 0 0 0 0 0 0 0 0 0
FullNghs:  1.18297e+06 ave 1.18297e+06 max 1.18297e+06 min
Histogram: 1 0 0 0 0 0 0 0 0 0

Total # of neighbors = 1182968
Ave neighs/atom = 169.91784
Neighbor list builds = 1967
Dangerous builds = 0
WARNING: Proc sub-domain size < neighbor skin, could lead to lost atoms (src/domain.cpp:1204)
Setting up Verlet run ...
  Unit style    : metal
  Current step  : 10000
  Time step     : 0.0001
Per MPI rank memory allocation (min/avg/max) = 28.28 | 28.28 | 28.28 Mbytes
   Step           Dt            Time           Temp          TotEng         KinEng         PotEng         Press          Volume        Density    
     10000   0.0001         10             13.480581      789944.71      12.129556      789932.58      2946251        698737.62      0.9001582    
     10200   0.0001         10.02          9234.1958      796499.54      8308.7435      788190.79      2949073.1      698737.62      0.9001582    
     10400   0.0001         10.04          15006.002      801311.11      13502.098      787809.01      2951337.3      698737.62      0.9001582    
     10600   0.0001         10.06          21317.098      806405.56      19180.696      787224.86      2952852.5      698737.62      0.9001582    
     10800   0.0001         10.08          28411.91       812074.98      25564.464      786510.51      2954039.9      698737.62      0.9001582    
     11000   0.0001         10.1           34039.186      816560.9       30627.775      785933.13      2954851.8      698737.62      0.9001582    
     11200   0.0001         10.12          37716.313      819584.06      33936.379      785647.68      2955183.9      698737.62      0.9001582    
     11400   0.0001         10.14          40638.37       821886.77      36565.588      785321.19      2955190.4      698737.62      0.9001582    
     11600   0.0001         10.16          43792.682      824382.99      39403.774      784979.21      2955767.5      698737.62      0.9001582    
     11800   0.0001         10.18          45923.04       826104.51      41320.627      784783.88      2956051.5      698737.62      0.9001582    
     12000   0.0001         10.2           48626.996      828310.47      43753.592      784556.88      2956671.5      698737.62      0.9001582    
     12200   0.0001         10.22          50113.35       829518.09      45090.984      784427.11      2956805.6      698737.62      0.9001582    
     12400   0.0001         10.24          51851.02       830904.39      46654.504      784249.88      2956928.9      698737.62      0.9001582    
     12600   0.0001         10.26          52978.36       831835.78      47668.862      784166.92      2957088.3      698737.62      0.9001582    
     12800   0.0001         10.28          53347.759      832135.89      48001.239      784134.65      2956917.1      698737.62      0.9001582    
     13000   0.0001         10.3           53869.077      832558.45      48470.311      784088.14      2956839.7      698737.62      0.9001582    
     13200   0.0001         10.32          53935.012      832622.68      48529.638      784093.05      2956877.3      698737.62      0.9001582    
     13400   0.0001         10.34          54411.929      833012.93      48958.759      784054.17      2956780.6      698737.62      0.9001582    
     13600   0.0001         10.36          54582.472      833156.17      49112.21       784043.96      2956776.5      698737.62      0.9001582    
     13800   0.0001         10.38          54897.325      833405.03      49395.508      784009.52      2956803        698737.62      0.9001582    
     14000   0.0001         10.4           54684.168      833230.01      49203.714      784026.29      2956675.6      698737.62      0.9001582    
     14200   0.0001         10.42          55019.834      833494.97      49505.739      783989.23      2956653.6      698737.62      0.9001582    
     14400   0.0001         10.44          54864.175      833368.21      49365.68       784002.53      2956504.6      698737.62      0.9001582    
     14600   0.0001         10.46          54887.486      833402.76      49386.655      784016.1       2956559.3      698737.62      0.9001582    
     14800   0.0001         10.48          54787.785      833339.87      49296.946      784042.92      2956433.7      698737.62      0.9001582    
     15000   0.0001         10.5           54787.712      833370.44      49296.881      784073.56      2956468.3      698737.62      0.9001582    
     15200   0.0001         10.52          54308.543      833002.68      48865.734      784136.95      2956432.3      698737.62      0.9001582    
     15400   0.0001         10.54          54613.862      833178.36      49140.454      784037.9       2956193.5      698737.62      0.9001582    
     15600   0.0001         10.56          54176.886      832867.15      48747.272      784119.87      2956119.8      698737.62      0.9001582    
     15800   0.0001         10.58          54500.698      833095.2       49038.631      784056.57      2956148.9      698737.62      0.9001582    
     16000   0.0001         10.6           54208.007      832873.35      48775.274      784098.08      2956145.3      698737.62      0.9001582    
     16200   0.0001         10.62          54000.863      832702.49      48588.89       784113.6       2955929.1      698737.62      0.9001582    
     16400   0.0001         10.64          53801.291      832586.75      48409.318      784177.43      2956017.3      698737.62      0.9001582    
     16600   0.0001         10.66          53623.864      832430.03      48249.673      784180.36      2955801.9      698737.62      0.9001582    
     16800   0.0001         10.68          54072.815      832803.17      48653.631      784149.54      2956052.5      698737.62      0.9001582    
     17000   0.0001         10.7           54132.379      832857.9       48707.225      784150.67      2956072.3      698737.62      0.9001582    
     17200   0.0001         10.72          53182.54       832113.68      47852.579      784261.1       2955704.3      698737.62      0.9001582    
     17400   0.0001         10.74          53673.656      832468.98      48294.475      784174.5       2955720.5      698737.62      0.9001582    
     17600   0.0001         10.76          53562.393      832279.23      48194.363      784084.86      2955405.1      698737.62      0.9001582    
     17800   0.0001         10.78          52815.186      831925.31      47522.041      784403.27      2955880        698737.62      0.9001582    
     18000   0.0001         10.8           53147.937      832021.59      47821.444      784200.15      2955467.7      698737.62      0.9001582    
     18200   0.0001         10.82          52840.834      831782.89      47545.119      784237.77      2955241.7      698737.62      0.9001582    
     18400   0.0001         10.84          53057.39       831953.74      47739.971      784213.77      2955474.9      698737.62      0.9001582    
     18600   0.0001         10.86          52976.992      831846.35      47667.631      784178.72      2955307.4      698737.62      0.9001582    
     18800   0.0001         10.88          53098.619      832049.31      47777.069      784272.24      2955503.2      698737.62      0.9001582    
     19000   0.0001         10.9           52795.79       831827.75      47504.589      784323.16      2955427.5      698737.62      0.9001582    
     19200   0.0001         10.92          53000.126      831931.52      47688.447      784243.08      2955362.1      698737.62      0.9001582    
     19400   0.0001         10.94          53034.881      831932.17      47719.718      784212.46      2955278.6      698737.62      0.9001582    
     19600   0.0001         10.96          52817.657      831829.02      47524.264      784304.76      2955324.1      698737.62      0.9001582    
     19800   0.0001         10.98          52970.006      831814.59      47661.346      784153.24      2955008.1      698737.62      0.9001582    
     20000   0.0001         11             52724.51       831734.26      47440.453      784293.8       2955294.2      698737.62      0.9001582    
     20200   0.0001         11.02          53273.55       832176.04      47934.468      784241.57      2955525.3      698737.62      0.9001582    
     20400   0.0001         11.04          53247.132      832042.38      47910.698      784131.68      2954987.1      698737.62      0.9001582    
     20600   0.0001         11.06          53384.223      832155.24      48034.049      784121.19      2955056        698737.62      0.9001582    
     20800   0.0001         11.08          52816.659      831755.32      47523.367      784231.96      2955053.5      698737.62      0.9001582    
     21000   0.0001         11.1           52926.683      831880.32      47622.364      784257.95      2955225.1      698737.62      0.9001582    
     21200   0.0001         11.12          53225.352      832064.87      47891.1        784173.77      2955101.8      698737.62      0.9001582    
     21400   0.0001         11.14          53316.139      832094.35      47972.789      784121.56      2954928.5      698737.62      0.9001582    
     21600   0.0001         11.16          53020.709      831973.27      47706.966      784266.31      2955245.3      698737.62      0.9001582    
     21800   0.0001         11.18          53124.749      831935.69      47800.58       784135.11      2954823.7      698737.62      0.9001582    
     22000   0.0001         11.2           52630.531      831541.05      47355.892      784185.16      2954693        698737.62      0.9001582    
     22200   0.0001         11.22          53148.236      831954.6       47821.713      784132.88      2954840.2      698737.62      0.9001582    
     22400   0.0001         11.24          53003.009      831855.07      47691.04       784164.03      2954856.2      698737.62      0.9001582    
     22600   0.0001         11.26          53020.327      831820.92      47706.623      784114.3       2954608.1      698737.62      0.9001582    
     22800   0.0001         11.28          53001.164      831851.63      47689.381      784162.25      2954669.3      698737.62      0.9001582    
     23000   0.0001         11.3           53016.256      831794.96      47702.96       784092         2954582.2      698737.62      0.9001582    
     23200   0.0001         11.32          52670.026      831632.14      47391.429      784240.71      2954806.5      698737.62      0.9001582    
     23400   0.0001         11.34          52572.05       831494.89      47303.272      784191.62      2954490.6      698737.62      0.9001582    
     23600   0.0001         11.36          53135.31       831945.91      47810.082      784135.83      2954604        698737.62      0.9001582    
     23800   0.0001         11.38          52777.113      831635.62      47487.784      784147.84      2954484.6      698737.62      0.9001582    
     24000   0.0001         11.4           53087.377      831864.01      47766.953      784097.06      2954558.3      698737.62      0.9001582    
     24200   0.0001         11.42          52980.419      831769.47      47670.715      784098.76      2954418.3      698737.62      0.9001582    
     24400   0.0001         11.44          52786.466      831698.55      47496.199      784202.35      2954704.2      698737.62      0.9001582    
     24600   0.0001         11.46          53088.974      831883.13      47768.391      784114.74      2954550.5      698737.62      0.9001582    
     24800   0.0001         11.48          52809.081      831684.62      47516.548      784168.07      2954588.3      698737.62      0.9001582    
     25000   0.0001         11.5           53046.867      831839.3       47730.503      784108.8       2954439.8      698737.62      0.9001582    
     25200   0.0001         11.52          52925.669      831747.23      47621.452      784125.78      2954472.2      698737.62      0.9001582    
     25400   0.0001         11.54          52787.52       831601.55      47497.148      784104.41      2954218.1      698737.62      0.9001582    
     25600   0.0001         11.56          52864.254      831667.47      47566.191      784101.28      2954218.9      698737.62      0.9001582    
     25800   0.0001         11.58          53072.826      831814.68      47753.861      784060.82      2954199.5      698737.62      0.9001582    
     26000   0.0001         11.6           52853.234      831687.44      47556.276      784131.17      2954370.9      698737.62      0.9001582    
     26200   0.0001         11.62          52933.752      831737.27      47628.725      784108.55      2954338.5      698737.62      0.9001582    
     26400   0.0001         11.64          52736.48       831568.97      47451.223      784117.75      2954221.7      698737.62      0.9001582    
     26600   0.0001         11.66          53092.341      831865.73      47771.42       784094.31      2954226.2      698737.62      0.9001582    
     26800   0.0001         11.68          52682.804      831547.71      47402.927      784144.78      2954314.5      698737.62      0.9001582    
     27000   0.0001         11.7           53214.476      831927.02      47881.315      784045.71      2954204.5      698737.62      0.9001582    
     27200   0.0001         11.72          52821.967      831655.88      47528.142      784127.74      2954203.8      698737.62      0.9001582    
     27400   0.0001         11.74          52862.353      831679.05      47564.481      784114.57      2954152.3      698737.62      0.9001582    
     27600   0.0001         11.76          52858.835      831728.49      47561.316      784167.18      2954312.9      698737.62      0.9001582    
     27800   0.0001         11.78          52982.148      831751.87      47672.27       784079.6       2954099.8      698737.62      0.9001582    
     28000   0.0001         11.8           52347.18       831250.86      47100.939      784149.92      2953989.5      698737.62      0.9001582    
     28200   0.0001         11.82          53053.967      831831.24      47736.891      784094.35      2954176.2      698737.62      0.9001582    
     28400   0.0001         11.84          52948.273      831746.57      47641.79       784104.78      2954136.9      698737.62      0.9001582    
     28600   0.0001         11.86          52818.66       831668.37      47525.167      784143.2       2954218.3      698737.62      0.9001582    
     28800   0.0001         11.88          52748.838      831560.87      47462.342      784098.53      2953967.3      698737.62      0.9001582    
     29000   0.0001         11.9           52717.93       831536.47      47434.532      784101.93      2953901.5      698737.62      0.9001582    
     29200   0.0001         11.92          52737          831595.22      47451.691      784143.53      2954148.2      698737.62      0.9001582    
     29400   0.0001         11.94          52611.275      831468.84      47338.566      784130.28      2954040.2      698737.62      0.9001582    
     29600   0.0001         11.96          52898.012      831639.5       47596.566      784042.94      2953830        698737.62      0.9001582    
     29800   0.0001         11.98          52784.24       831579.13      47494.196      784084.93      2953844.8      698737.62      0.9001582    
     30000   0.0001         12             52917.25       831679.96      47613.877      784066.08      2953966        698737.62      0.9001582    
     30200   0.0001         12.02          52769.371      831591.17      47480.818      784110.35      2953901.3      698737.62      0.9001582    
     30400   0.0001         12.04          52628.845      831469.85      47354.375      784115.47      2953811.9      698737.62      0.9001582    
     30600   0.0001         12.06          52877.93       831654.5       47578.497      784076         2953805.5      698737.62      0.9001582    
     30800   0.0001         12.08          52532.207      831375.65      47267.423      784108.23      2953746.5      698737.62      0.9001582    
     31000   0.0001         12.1           52795.573      831595.11      47504.393      784090.71      2953841.1      698737.62      0.9001582    
     31200   0.0001         12.12          52840.063      831632.72      47544.425      784088.29      2953828.5      698737.62      0.9001582    
     31400   0.0001         12.14          52591.822      831431.05      47321.063      784109.99      2953758.2      698737.62      0.9001582    
     31600   0.0001         12.16          52745.036      831565.65      47458.921      784106.73      2953815.5      698737.62      0.9001582    
     31800   0.0001         12.18          52877.291      831650.16      47577.922      784072.24      2953864        698737.62      0.9001582    
     32000   0.0001         12.2           52696.424      831481.13      47415.181      784065.94      2953663.6      698737.62      0.9001582    
     32200   0.0001         12.22          52366.728      831196.25      47118.528      784077.73      2953426.4      698737.62      0.9001582    
     32400   0.0001         12.24          52627.742      831424.74      47353.383      784071.36      2953601.7      698737.62      0.9001582    
     32600   0.0001         12.26          52234.667      831136.37      46999.702      784136.66      2953562.3      698737.62      0.9001582    
     32800   0.0001         12.28          52718.809      831560.95      47435.323      784125.62      2953762.5      698737.62      0.9001582    
     33000   0.0001         12.3           52666.245      831432.51      47388.027      784044.48      2953507.4      698737.62      0.9001582    
     33200   0.0001         12.32          52755.627      831524.02      47468.451      784055.57      2953664.4      698737.62      0.9001582    
     33400   0.0001         12.34          52507.482      831330.43      47245.176      784085.26      2953563.5      698737.62      0.9001582    
     33600   0.0001         12.36          52633.012      831444.69      47358.125      784086.57      2953589.3      698737.62      0.9001582    
     33800   0.0001         12.38          52335.25       831203.69      47090.204      784113.49      2953445.2      698737.62      0.9001582    
     34000   0.0001         12.4           52664.438      831470.44      47386.401      784084.04      2953565        698737.62      0.9001582    
     34200   0.0001         12.42          52785.425      831549.9       47495.263      784054.64      2953538.1      698737.62      0.9001582    
     34400   0.0001         12.44          52607.353      831382.07      47335.037      784047.03      2953391.2      698737.62      0.9001582    
     34600   0.0001         12.46          52393.618      831238.44      47142.722      784095.72      2953425.3      698737.62      0.9001582    
     34800   0.0001         12.48          52775.975      831595.8       47486.76       784109.04      2953752.7      698737.62      0.9001582    
     35000   0.0001         12.5           52632.753      831396.37      47357.892      784038.48      2953413.2      698737.62      0.9001582    
     35200   0.0001         12.52          52621.519      831421.6       47347.783      784073.81      2953547.1      698737.62      0.9001582    
     35400   0.0001         12.54          52835.621      831573.36      47540.428      784032.93      2953413.9      698737.62      0.9001582    
     35600   0.0001         12.56          52408.147      831211.48      47155.796      784055.68      2953227.7      698737.62      0.9001582    
     35800   0.0001         12.58          52743.502      831513.53      47457.541      784055.98      2953471.8      698737.62      0.9001582    
     36000   0.0001         12.6           52449.578      831241.9       47193.074      784048.82      2953195.3      698737.62      0.9001582    
     36200   0.0001         12.62          52308.622      831180.78      47066.245      784114.53      2953375.5      698737.62      0.9001582    
     36400   0.0001         12.64          52692.435      831441.72      47411.592      784030.13      2953298.9      698737.62      0.9001582    
     36600   0.0001         12.66          52472.01       831298.19      47213.258      784084.93      2953451.9      698737.62      0.9001582    
     36800   0.0001         12.68          52637.102      831413.96      47361.805      784052.16      2953288.7      698737.62      0.9001582    
     37000   0.0001         12.7           52359.161      831187.39      47111.719      784075.67      2953203.6      698737.62      0.9001582    
     37200   0.0001         12.72          52701.732      831460.57      47419.957      784040.61      2953340.3      698737.62      0.9001582    
     37400   0.0001         12.74          52510.355      831294.59      47247.761      784046.83      2953198.1      698737.62      0.9001582    
     37600   0.0001         12.76          52310.492      831147.92      47067.928      784079.99      2953259.3      698737.62      0.9001582    
     37800   0.0001         12.78          52702.363      831478.02      47420.525      784057.49      2953369.5      698737.62      0.9001582    
     38000   0.0001         12.8           52405.464      831206.76      47153.381      784053.38      2953150        698737.62      0.9001582    
     38200   0.0001         12.82          52464.353      831313.2       47206.369      784106.83      2953307        698737.62      0.9001582    
     38400   0.0001         12.84          52567.408      831377.08      47299.096      784077.98      2953248.6      698737.62      0.9001582    
     38600   0.0001         12.86          52825.694      831575.5       47531.496      784044         2953322.5      698737.62      0.9001582    
     38800   0.0001         12.88          52436.59       831248.98      47181.388      784067.6       2953277.1      698737.62      0.9001582    
     39000   0.0001         12.9           52220.92       831115.46      46987.333      784128.13      2953293.4      698737.62      0.9001582    
     39200   0.0001         12.92          52772.879      831512.47      47483.974      784028.49      2953308.2      698737.62      0.9001582    
     39400   0.0001         12.94          52364.389      831233.54      47116.423      784117.12      2953305.6      698737.62      0.9001582    
     39600   0.0001         12.96          52595.17       831348.93      47324.075      784024.85      2953120.1      698737.62      0.9001582    
     39800   0.0001         12.98          52342.465      831146.63      47096.696      784049.93      2952955.6      698737.62      0.9001582    
     40000   0.0001         13             52192.467      831042.23      46961.731      784080.5       2952929.1      698737.62      0.9001582    
     40200   0.0001         13.02          52334.474      831115.92      47089.506      784026.41      2952884.7      698737.62      0.9001582    
     40400   0.0001         13.04          52162.218      831026.99      46934.514      784092.48      2953101.3      698737.62      0.9001582    
     40600   0.0001         13.06          52619.816      831375.4       47346.251      784029.14      2953080.1      698737.62      0.9001582    
     40800   0.0001         13.08          51825.54       830729         46631.578      784097.42      2952796.3      698737.62      0.9001582    
     41000   0.0001         13.1           51941.825      830819.32      46736.208      784083.11      2952820.4      698737.62      0.9001582    
     41200   0.0001         13.12          52178.103      831021.42      46948.807      784072.62      2952920.1      698737.62      0.9001582    
     41400   0.0001         13.14          52579.766      831342.43      47310.215      784032.21      2953010.9      698737.62      0.9001582    
     41600   0.0001         13.16          52452.557      831213.62      47195.755      784017.87      2952893.1      698737.62      0.9001582    
     41800   0.0001         13.18          52404.63       831172.97      47152.631      784020.34      2952874.2      698737.62      0.9001582    
     42000   0.0001         13.2           52202.22       831043.92      46970.507      784073.41      2952895.3      698737.62      0.9001582    
     42200   0.0001         13.22          52289.305      831080.09      47048.864      784031.23      2952809.5      698737.62      0.9001582    
     42400   0.0001         13.24          52461.018      831240.47      47203.368      784037.1       2953003.5      698737.62      0.9001582    
     42600   0.0001         13.26          52097.828      830940.93      46876.577      784064.35      2952848        698737.62      0.9001582    
     42800   0.0001         13.28          52465.953      831285.24      47207.808      784077.43      2953083.3      698737.62      0.9001582    
     43000   0.0001         13.3           52345.01       831174.52      47098.986      784075.54      2953017.3      698737.62      0.9001582    
     43200   0.0001         13.32          52240.871      831055.39      47005.284      784050.11      2952869.1      698737.62      0.9001582    
     43400   0.0001         13.34          52144.065      830983.03      46918.18       784064.85      2952851.2      698737.62      0.9001582    
     43600   0.0001         13.36          52350.04       831110.79      47103.512      784007.27      2952696.2      698737.62      0.9001582    
     43800   0.0001         13.38          52401.614      831167.81      47149.917      784017.9       2952792        698737.62      0.9001582    
     44000   0.0001         13.4           52295.757      831098.94      47054.669      784044.27      2952798        698737.62      0.9001582    
     44200   0.0001         13.42          51833.073      830731.06      46638.355      784092.7       2952718.5      698737.62      0.9001582    
     44400   0.0001         13.44          52174.637      830992.52      46945.688      784046.83      2952721.8      698737.62      0.9001582    
     44600   0.0001         13.46          52058.067      830896.27      46840.801      784055.47      2952668.3      698737.62      0.9001582    
     44800   0.0001         13.48          52582.016      831306.47      47312.239      783994.24      2952699.7      698737.62      0.9001582    
     45000   0.0001         13.5           52161.192      830973.63      46933.59       784040.04      2952682.8      698737.62      0.9001582    
     45200   0.0001         13.52          52444.092      831174.41      47188.138      783986.27      2952647        698737.62      0.9001582    
     45400   0.0001         13.54          52136.537      830985.03      46911.407      784073.63      2952767        698737.62      0.9001582    
     45600   0.0001         13.56          52240.918      831021.15      47005.326      784015.83      2952648.1      698737.62      0.9001582    
     45800   0.0001         13.58          51652.419      830526.84      46475.807      784051.03      2952339.5      698737.62      0.9001582    
     46000   0.0001         13.6           52169.786      830976.46      46941.323      784035.14      2952652.4      698737.62      0.9001582    
     46200   0.0001         13.62          52205.093      830985.98      46973.092      784012.89      2952604.2      698737.62      0.9001582    
     46400   0.0001         13.64          52110.103      830910.28      46887.622      784022.66      2952551.5      698737.62      0.9001582    
     46600   0.0001         13.66          51941.519      830784.39      46735.933      784048.46      2952540.1      698737.62      0.9001582    
     46800   0.0001         13.68          52181.681      830960.77      46952.026      784008.75      2952485.8      698737.62      0.9001582    
     47000   0.0001         13.7           52338.146      831127.31      47092.81       784034.5       2952707.7      698737.62      0.9001582    
     47200   0.0001         13.72          52470.138      831209.34      47211.574      783997.77      2952700.8      698737.62      0.9001582    
     47400   0.0001         13.74          52152.085      830940.75      46925.397      784015.35      2952512.7      698737.62      0.9001582    
     47600   0.0001         13.76          52118.175      830940.59      46894.885      784045.7       2952612.2      698737.62      0.9001582    
     47800   0.0001         13.78          52248.025      831026.39      47011.721      784014.67      2952550.9      698737.62      0.9001582    
     48000   0.0001         13.8           52031.609      830848.93      46816.994      784031.94      2952508.3      698737.62      0.9001582    
     48200   0.0001         13.82          51922.836      830778.04      46719.122      784058.91      2952460.3      698737.62      0.9001582    
     48400   0.0001         13.84          52137.767      830914.26      46912.513      784001.75      2952424.5      698737.62      0.9001582    
     48600   0.0001         13.86          52262.261      831032.33      47024.53       784007.8       2952458.6      698737.62      0.9001582    
     48800   0.0001         13.88          52085.789      830903.24      46865.744      784037.49      2952546.5      698737.62      0.9001582    
     49000   0.0001         13.9           52213.88       830990.61      46980.998      784009.61      2952500        698737.62      0.9001582    
     49200   0.0001         13.92          52090.45       830915.97      46869.938      784046.04      2952547.7      698737.62      0.9001582    
     49400   0.0001         13.94          52201.732      830990.07      46970.067      784020         2952510.7      698737.62      0.9001582    
     49600   0.0001         13.96          52303.464      831053.13      47061.604      783991.53      2952467.8      698737.62      0.9001582    
     49800   0.0001         13.98          52114.453      830893.19      46891.536      784001.65      2952382.1      698737.62      0.9001582    
     50000   0.0001         14             52230.951      830987.82      46996.358      783991.46      2952414.3      698737.62      0.9001582    
     50200   0.0001         14.02          52163.134      830934.6       46935.338      783999.26      2952442.2      698737.62      0.9001582    
     50400   0.0001         14.04          51993.196      830788.64      46782.431      784006.21      2952311        698737.62      0.9001582    
     50600   0.0001         14.06          51977.821      830805.62      46768.597      784037.02      2952445.5      698737.62      0.9001582    
     50800   0.0001         14.08          52138.243      830937.14      46912.942      784024.2       2952411.6      698737.62      0.9001582    
     51000   0.0001         14.1           52077.796      830899.84      46858.553      784041.28      2952458.7      698737.62      0.9001582    
     51200   0.0001         14.12          51850.26       830688.75      46653.82       784034.93      2952245.9      698737.62      0.9001582    
     51400   0.0001         14.14          52066.005      830861.03      46847.943      784013.08      2952396.7      698737.62      0.9001582    
     51600   0.0001         14.16          52111.901      830905.06      46889.239      784015.82      2952403.8      698737.62      0.9001582    
     51800   0.0001         14.18          52334.771      831104.1       47089.773      784014.33      2952525        698737.62      0.9001582    
     52000   0.0001         14.2           52146.12       830942.09      46920.029      784022.06      2952481.5      698737.62      0.9001582    
     52200   0.0001         14.22          52176.791      830978.23      46947.626      784030.61      2952491.5      698737.62      0.9001582    
     52400   0.0001         14.24          52101.08       830909         46879.503      784029.49      2952433.2      698737.62      0.9001582    
     52600   0.0001         14.26          51803.298      830644.19      46611.565      784032.62      2952198.3      698737.62      0.9001582    
     52800   0.0001         14.28          52014.82       830812.42      46801.888      784010.53      2952287.9      698737.62      0.9001582    
     53000   0.0001         14.3           52200.164      830950.01      46968.657      783981.36      2952300.7      698737.62      0.9001582    
     53200   0.0001         14.32          51888.183      830698.42      46687.942      784010.48      2952190.3      698737.62      0.9001582    
     53400   0.0001         14.34          52155.406      830932.58      46928.384      784004.2       2952268.5      698737.62      0.9001582    
     53600   0.0001         14.36          52005.023      830825.01      46793.072      784031.93      2952357.5      698737.62      0.9001582    
     53800   0.0001         14.38          51946.575      830761.47      46740.482      784020.99      2952246.4      698737.62      0.9001582    
     54000   0.0001         14.4           52080.815      830878.89      46861.269      784017.62      2952312.6      698737.62      0.9001582    
     54200   0.0001         14.42          52089.176      830888.29      46868.792      784019.49      2952346.2      698737.62      0.9001582    
     54400   0.0001         14.44          52129.645      830892.79      46905.205      783987.59      2952306.6      698737.62      0.9001582    
     54600   0.0001         14.46          52044.908      830833.24      46828.961      784004.28      2952260        698737.62      0.9001582    
     54800   0.0001         14.48          52115.39       830884.8       46892.379      783992.42      2952229.7      698737.62      0.9001582    
     55000   0.0001         14.5           52182.131      830961.07      46952.431      784008.64      2952338.6      698737.62      0.9001582    
     55200   0.0001         14.52          51815.863      830650.02      46622.87       784027.15      2952187.4      698737.62      0.9001582    
     55400   0.0001         14.54          51881.596      830727.84      46682.016      784045.82      2952316.6      698737.62      0.9001582    
     55600   0.0001         14.56          51931.531      830742.23      46726.946      784015.28      2952168.6      698737.62      0.9001582    
     55800   0.0001         14.58          51910.585      830710.22      46708.1        784002.12      2952108.4      698737.62      0.9001582    
     56000   0.0001         14.6           51939.195      830732.5       46733.842      783998.66      2952141.4      698737.62      0.9001582    
     56200   0.0001         14.62          51916.206      830749.2       46713.157      784036.05      2952238.2      698737.62      0.9001582    
     56400   0.0001         14.64          52345.148      831068.42      47099.111      783969.31      2952283.1      698737.62      0.9001582    
     56600   0.0001         14.66          52100.932      830878.9       46879.369      783999.53      2952262.7      698737.62      0.9001582    
     56800   0.0001         14.68          52015.802      830794.27      46802.772      783991.49      2952166.6      698737.62      0.9001582    
     57000   0.0001         14.7           52044.422      830824.32      46828.523      783995.8       2952208.6      698737.62      0.9001582    
     57200   0.0001         14.72          52146.991      830904.56      46920.813      783983.74      2952191.4      698737.62      0.9001582    
     57400   0.0001         14.74          52130.999      830915.38      46906.423      784008.96      2952264        698737.62      0.9001582    
     57600   0.0001         14.76          51932.89       830750.19      46728.169      784022.02      2952174.2      698737.62      0.9001582    
     57800   0.0001         14.78          51978.649      830763.1       46769.342      783993.76      2952093        698737.62      0.9001582    
     58000   0.0001         14.8           51682.531      830522.64      46502.901      784019.74      2951974.8      698737.62      0.9001582    
     58200   0.0001         14.82          51810.499      830616.26      46618.044      783998.21      2951979.4      698737.62      0.9001582    
     58400   0.0001         14.84          52072.821      830848.8       46854.076      783994.73      2952142        698737.62      0.9001582    
     58600   0.0001         14.86          51596.769      830470.51      46425.734      784044.78      2951995.6      698737.62      0.9001582    
     58800   0.0001         14.88          51660.286      830530.68      46482.885      784047.8       2952035.5      698737.62      0.9001582    
     59000   0.0001         14.9           52172.033      830955.66      46943.345      784012.31      2952255.6      698737.62      0.9001582    
     59200   0.0001         14.92          51921.411      830724.48      46717.84       784006.64      2952084.8      698737.62      0.9001582    
     59400   0.0001         14.94          52035.792      830821.41      46820.758      784000.66      2952102.6      698737.62      0.9001582    
     59600   0.0001         14.96          51657.708      830506.04      46480.566      784025.47      2951976        698737.62      0.9001582    
     59800   0.0001         14.98          51755.173      830594.19      46568.263      784025.93      2951979.4      698737.62      0.9001582    
     60000   0.0001         15             51903.673      830698.1       46701.88       783996.21      2952026.2      698737.62      0.9001582    
Loop time of 95.3893 on 1 procs for 50000 steps with 6962 atoms

Performance: 4.529 ns/day, 5.299 hours/ns, 524.168 timesteps/s, 3.649 Matom-step/s
99.5% CPU use with 1 MPI tasks x 1 OpenMP threads

MPI task timing breakdown:
Section |  min time  |  avg time  |  max time  |%varavg| %total
---------------------------------------------------------------
Pair    | 63.802     | 63.802     | 63.802     |   0.0 | 66.89
Neigh   | 1.2372     | 1.2372     | 1.2372     |   0.0 |  1.30
Comm    | 18.636     | 18.636     | 18.636     |   0.0 | 19.54
Output  | 1.5044     | 1.5044     | 1.5044     |   0.0 |  1.58
Modify  | 7.347      | 7.347      | 7.347      |   0.0 |  7.70
Other   |            | 2.862      |            |       |  3.00

Nlocal:           6962 ave        6962 max        6962 min
Histogram: 1 0 0 0 0 0 0 0 0 0
Nghost:         128157 ave      128157 max      128157 min
Histogram: 1 0 0 0 0 0 0 0 0 0
Neighs:              0 ave           0 max           0 min
Histogram: 1 0 0 0 0 0 0 0 0 0
FullNghs:       817716 ave      817716 max      817716 min
Histogram: 1 0 0 0 0 0 0 0 0 0

Total # of neighbors = 817716
Ave neighs/atom = 117.45418
Neighbor list builds = 1638
Dangerous builds = 0
System init for write_restart ...
WARNING: Proc sub-domain size < neighbor skin, could lead to lost atoms (src/domain.cpp:1204)
Total wall time: 0:02:01
