
Lmod is automatically replacing "gcc/12.3" with "intel/2023.2.1".


Due to MODULEPATH changes, the following have been reloaded:
  1) aocl-blas/5.1     2) aocl-lapack/5.1     3) flexiblas/3.3.1     4) openmpi/4.1.5

LAMMPS (22 Jul 2025 - Development - patch_22Jul2025-72-g8b7fdf9ad3)
KOKKOS mode with Kokkos version 4.6.2 is enabled
  will use up to 1 GPU(s) per node
  using 1 OpenMP thread(s) per MPI task
WARNING: Detected non-ASCII characters in input. Will try to continue by replacing with ASCII equivalents where known. (src/input.cpp:478)
Created orthogonal box = (-150 -0.5 0) to (150 0.5 840)
  1 by 1 by 1 MPI processor grid
Lattice spacing in x,y,z = 2.866 2.866 2.866
Created 6615 atoms
  using lattice units in orthogonal box = (-150 -0.5 -0.084) to (150 0.5 840.084)
  create_atoms CPU = 0.039 seconds
Lattice spacing in x,y,z = 4.05 4.05 4.05
Created 347 atoms
  using lattice units in orthogonal box = (-150 -0.5 -0.084) to (150 0.5 840.084)
  create_atoms CPU = 0.001 seconds
347 atoms in group particle_group
6615 atoms in group substrate_group
2205 atoms in group frozen_atoms
1155 atoms in group thermostat_atoms
3255 atoms in group mobile_atoms
3602 atoms in group nve_atoms
Reading eam/fs potential file /home/wuwen123/comp/yao/lammps/potentials/AlFe_mm.eam.fs with DATE: 2007-06-11
Neighbor list info ...
  update: every = 1 steps, delay = 0 steps, check = yes
  max neighbors/atom: 2000, page size: 100000
  master list distance cutoff = 8.5
  ghost atom cutoff = 8.5
  binsize = 8.5, bins = 36 1 99
  2 neighbor lists, perpetual/occasional/extra = 2 0 0
  (1) pair eam/fs, perpetual
      attributes: full, newton off, kokkos_device, cut 8.5
      pair build: full/bin/kk/device
      stencil: full/bin/3d
      bin: kk/device
  (2) pair lj/cut, perpetual, copy from (1)
      attributes: full, newton off, kokkos_device
      pair build: copy/kk/device
      stencil: none
      bin: none
WARNING: Proc sub-domain size < neighbor skin, could lead to lost atoms (src/domain.cpp:1204)
Setting up Verlet run ...
  Unit style    : metal
  Current step  : 0
  Time step     : 0.001
WARNING: Required border comm not yet implemented in Kokkos communication, switching to classic exchange/border communication (src/KOKKOS/comm_kokkos.cpp:1089)
Per MPI rank memory allocation (min/avg/max) = 24.72 | 24.72 | 24.72 Mbytes
   Step           Dt            Time           Temp          TotEng         KinEng         PotEng         Press          Volume        Density    
         0   0.001          0              140.23847      797616.26      126.18375      797490.08      26765223       80847.9        7.7797246    
       200   0.001          0.2            83013.274      866004.34      74693.673      791310.67      27002458       80847.9        7.7797246    
       400   0.001          0.4            127073.69      902593.01      114338.35      788254.66      26698995       81984.16       7.6719015    
       600   0.001          0.6            133522.1       908019.6       120140.5       787879.1       22371228       97777.395      6.4327179    
       800   0.001          0.8            136126.34      910140.19      122483.74      787656.45      19090315       114519.84      5.4922743    
      1000   0.001          1              136382.86      910303.58      122714.55      787589.03      16432970       132958         4.7306247    
      1200   0.001          1.2            135652.21      909619.74      122057.13      787562.6       14388070       151750.6       4.1447901    
      1400   0.001          1.4            134079.08      908209.56      120641.65      787567.9       12720887       171500.2       3.6674849    
      1600   0.001          1.6            132111.64      906451.6       118871.39      787580.2       11405574       191102.91      3.2912863    
      1800   0.001          1.8            130208.37      904740.72      117158.87      787581.85      10342293       210547.93      2.9873217    
      2000   0.001          2              128098.19      902847.95      115260.17      787587.77      9465504.4      229830.07      2.7366933    
      2200   0.001          2.2            125956.14      900924.6       113332.79      787591.8       8730221.4      248946.35      2.526546     
      2400   0.001          2.4            123837.79      899023.7       111426.75      787596.95      8104806.1      267894.36      2.3478448    
      2600   0.001          2.6            121690.67      897095.2       109494.81      787600.39      7566536.9      286672.2       2.1940544    
      2800   0.001          2.8            119522.34      895146.38      107543.79      787602.59      7098368.1      305278.48      2.06033      
      3000   0.001          3              117340.66      893187.81      105580.76      787607.05      6687617.2      323712.33      1.9430041    
      3200   0.001          3.2            115163.29      891234.3       103621.61      787612.69      6324357.6      341973.3       1.83925      
      3400   0.001          3.4            112995.31      889284.9       101670.9       787613.99      6000831        360061.26      1.7468538    
      3600   0.001          3.6            110858         887366.48      99747.797      787618.69      5710956.7      377976.38      1.6640574    
      3800   0.001          3.8            108756         885481.96      97856.463      787625.5       5449797.9      395719.06      1.5894468    
      4000   0.001          4              106650.01      883588.51      95961.531      787626.98      5213221.4      413289.93      1.5218721    
      4200   0.001          4.2            104588.33      881735.44      94106.474      787628.97      4998014.8      430689.78      1.4603885    
      4400   0.001          4.4            102563.23      879914.06      92284.329      787629.73      4801377        447919.56      1.4042128    
      4600   0.001          4.6            100565.64      878120.4       90486.936      787633.47      4621087.8      464980.36      1.3526902    
      4800   0.001          4.8            98591.077      876345.68      88710.267      787635.42      4455166.7      481873.39      1.305269     
      5000   0.001          5              96665.048      874614.94      86977.265      787637.68      4302003        498599.93      1.2614811    
      5200   0.001          5.2            94765.489      872907.24      85268.079      787639.16      4160186.9      515161.38      1.2209269    
      5400   0.001          5.4            92901.242      871230.34      83590.667      787639.67      4028488.7      531559.18      1.1832632    
      5600   0.001          5.6            91076.289      869589.27      81948.612      787640.66      3905885.4      547794.85      1.1481933    
      5800   0.001          5.8            89285.454      867980.35      80337.254      787643.1       3791508.3      563869.97      1.11546      
      6000   0.001          6              87532.632      866403.2       78760.101      787643.1       3684512.4      579786.14      1.0848386    
      6200   0.001          6.2            85807.519      864852.26      77207.878      787644.38      3584256.3      595545.02      1.0561324    
      6400   0.001          6.4            84124.485      863337.47      75693.518      787643.96      3490090.5      611148.28      1.0291682    
      6600   0.001          6.6            82477.015      861857.13      74211.158      787645.97      3401516.3      626597.64      1.0037931    
      6800   0.001          6.8            80861.69       860402.75      72757.721      787645.03      3318029.3      641894.8       0.97987147   
      7000   0.001          7              79280.622      858980.04      71335.107      787644.93      3239230.1      657041.51      0.95728258   
      7200   0.001          7.2            77735.189      857592.31      69944.558      787647.75      3165094.2      671964.9       0.93602269   
      7400   0.001          7.4            76218.739      856227.75      68580.087      787647.66      3093868.3      686964.48      0.91558504   
      7600   0.001          7.6            74738.407      854896.38      67248.114      787648.27      3027003.6      701669.63      0.89639678   
      7800   0.001          7.8            73290.888      853594.24      65945.666      787648.57      2963523.1      716231.36      0.8781721    
      8000   0.001          8              71872.744      852317.98      64669.648      787648.34      2903166.1      730651.43      0.86084058   
      8200   0.001          8.2            70484.875      851068.85      63420.872      787647.98      2846264.9      744789.47      0.84449958   
      8400   0.001          8.4            69133.156      849852.64      62204.622      787648.01      2791503.1      758932.84      0.82876161   
      8600   0.001          8.6            67805.63       848658.92      61010.141      787648.77      2739279.3      772939.75      0.81374311   
      8800   0.001          8.8            66510.813      847494.96      59845.09       787649.87      2689407.2      786811.96      0.79939609   
      9000   0.001          9              65242.905      846355.34      58704.253      787651.09      2641740        800551.16      0.78567671   
      9200   0.001          9.2            64002.546      845240.27      57588.203      787652.07      2596130.8      814159.07      0.77254486   
      9400   0.001          9.4            62794.08       844151.51      56500.849      787650.66      2552437.2      827637.37      0.75996375   
      9600   0.001          9.6            61609.11       843084.95      55434.637      787650.31      2510563.2      840987.75      0.7478996    
      9800   0.001          9.8            60449.745      842044.34      54391.464      787652.88      2470409.4      854211.86      0.73632132   
     10000   0.001          10             59320.176      841025.76      53375.1        787650.66      2431828.8      867311.34      0.72520024   
Loop time of 25.4476 on 1 procs for 10000 steps with 6962 atoms

Performance: 33.952 ns/day, 0.707 hours/ns, 392.964 timesteps/s, 2.736 Matom-step/s
97.8% CPU use with 1 MPI tasks x 1 OpenMP threads

MPI task timing breakdown:
Section |  min time  |  avg time  |  max time  |%varavg| %total
---------------------------------------------------------------
Pair    | 13.002     | 13.002     | 13.002     |   0.0 | 51.09
Neigh   | 2.3313     | 2.3313     | 2.3313     |   0.0 |  9.16
Comm    | 5.9247     | 5.9247     | 5.9247     |   0.0 | 23.28
Output  | 0.28234    | 0.28234    | 0.28234    |   0.0 |  1.11
Modify  | 1.8852     | 1.8852     | 1.8852     |   0.0 |  7.41
Other   |            | 2.022      |            |       |  7.94

Nlocal:           6962 ave        6962 max        6962 min
Histogram: 1 0 0 0 0 0 0 0 0 0
Nghost:         130371 ave      130371 max      130371 min
Histogram: 1 0 0 0 0 0 0 0 0 0
Neighs:              0 ave           0 max           0 min
Histogram: 1 0 0 0 0 0 0 0 0 0
FullNghs:  1.19464e+06 ave 1.19464e+06 max 1.19464e+06 min
Histogram: 1 0 0 0 0 0 0 0 0 0

Total # of neighbors = 1194640
Ave neighs/atom = 171.59437
Neighbor list builds = 2433
Dangerous builds = 0
WARNING: Proc sub-domain size < neighbor skin, could lead to lost atoms (src/domain.cpp:1204)
Setting up Verlet run ...
  Unit style    : metal
  Current step  : 10000
  Time step     : 0.0001
Per MPI rank memory allocation (min/avg/max) = 28.3 | 28.3 | 28.3 Mbytes
   Step           Dt            Time           Temp          TotEng         KinEng         PotEng         Press          Volume        Density    
     10000   0.0001         10             13.480581      787662.79      12.129556      787650.66      2365399.8      867572.07      0.7249823    
     10200   0.0001         10.02          5376.7027      792058.04      4837.8488      787220.19      2366466.3      867572.07      0.7249823    
     10400   0.0001         10.04          11012.045      796719.94      9908.416       786811.52      2367608.4      867572.07      0.7249823    
     10600   0.0001         10.06          17455.294      802048.76      15705.922      786342.84      2369033        867572.07      0.7249823    
     10800   0.0001         10.08          24459.096      807834.12      22007.802      785826.31      2370665.3      867572.07      0.7249823    
     11000   0.0001         10.1           29535.094      812037.44      26575.083      785462.36      2371760.2      867572.07      0.7249823    
     11200   0.0001         10.12          33652.104      815440.89      30279.485      785161.4       2372277.5      867572.07      0.7249823    
     11400   0.0001         10.14          36496.938      817813.4       32839.21       784974.19      2372927.7      867572.07      0.7249823    
     11600   0.0001         10.16          39543.79       820339.77      35580.706      784759.06      2373673.5      867572.07      0.7249823    
     11800   0.0001         10.18          41755.841      822172.85      37571.065      784601.79      2374178.1      867572.07      0.7249823    
     12000   0.0001         10.2           43078.686      823276.89      38761.334      784515.56      2374324.2      867572.07      0.7249823    
     12200   0.0001         10.22          44857.113      824746.86      40361.527      784385.33      2374614.3      867572.07      0.7249823    
     12400   0.0001         10.24          45351.376      825164.06      40806.255      784357.81      2374635.7      867572.07      0.7249823    
     12600   0.0001         10.26          45716.109      825471.53      41134.434      784337.1       2374592.7      867572.07      0.7249823    
     12800   0.0001         10.28          46091.396      825786.79      41472.11       784314.68      2374621.5      867572.07      0.7249823    
     13000   0.0001         10.3           46250.891      825926.31      41615.621      784310.69      2374606.8      867572.07      0.7249823    
     13200   0.0001         10.32          46702.526      826293.43      42021.993      784271.43      2374706.6      867572.07      0.7249823    
     13400   0.0001         10.34          47145.433      826661.42      42420.512      784240.91      2374743.5      867572.07      0.7249823    
     13600   0.0001         10.36          47150.392      826667.77      42424.974      784242.79      2374758.2      867572.07      0.7249823    
     13800   0.0001         10.38          47290.859      826793.7       42551.363      784242.34      2374716.3      867572.07      0.7249823    
     14000   0.0001         10.4           47083.325      826630.13      42364.628      784265.5       2374623        867572.07      0.7249823    
     14200   0.0001         10.42          47284.608      826787.73      42545.738      784241.99      2374655.8      867572.07      0.7249823    
     14400   0.0001         10.44          47317.77       826819.05      42575.577      784243.47      2374652        867572.07      0.7249823    
     14600   0.0001         10.46          47290.013      826794.36      42550.602      784243.76      2374635.8      867572.07      0.7249823    
     14800   0.0001         10.48          47486.858      826945.7       42727.719      784217.98      2374682.6      867572.07      0.7249823    
     15000   0.0001         10.5           47359.532      826833.3       42613.154      784220.15      2374654        867572.07      0.7249823    
     15200   0.0001         10.52          47458.969      826907.58      42702.625      784204.95      2374678.9      867572.07      0.7249823    
     15400   0.0001         10.54          47842.204      827209.68      43047.452      784162.23      2374790.6      867572.07      0.7249823    
     15600   0.0001         10.56          47714.547      827092.33      42932.589      784159.75      2374728.8      867572.07      0.7249823    
     15800   0.0001         10.58          47674.687      827054.46      42896.724      784157.73      2374705.4      867572.07      0.7249823    
     16000   0.0001         10.6           47667.522      827045.05      42890.277      784154.77      2374753.7      867572.07      0.7249823    
     16200   0.0001         10.62          47064.896      826544.29      42348.046      784196.25      2374610.1      867572.07      0.7249823    
     16400   0.0001         10.64          46656.961      826336.22      41980.994      784355.23      2374797.7      867572.07      0.7249823    
     16600   0.0001         10.66          47385.895      826894.75      42636.875      784257.88      2374930.2      867572.07      0.7249823    
     16800   0.0001         10.68          46925.778      826537.77      42222.87       784314.9       2374808.1      867572.07      0.7249823    
     17000   0.0001         10.7           47142.604      826758.99      42417.966      784341.02      2375036.1      867572.07      0.7249823    
     17200   0.0001         10.72          47288.784      826901.31      42549.496      784351.81      2375213        867572.07      0.7249823    
     17400   0.0001         10.74          46939.761      826844.27      42235.452      784608.82      2375544.7      867572.07      0.7249823    
     17600   0.0001         10.76          46778.88       826552.78      42090.695      784462.09      2375324.3      867572.07      0.7249823    
     17800   0.0001         10.78          46715.525      826537.28      42033.689      784503.59      2375374.6      867572.07      0.7249823    
     18000   0.0001         10.8           46163.874      826084.78      41537.324      784547.45      2375287.2      867572.07      0.7249823    
     18200   0.0001         10.82          46102.365      826069.91      41481.98       784587.93      2375370.4      867572.07      0.7249823    
     18400   0.0001         10.84          46082.128      826034.4       41463.771      784570.63      2375370.2      867572.07      0.7249823    
     18600   0.0001         10.86          46387.535      826246.3       41738.57       784507.73      2375426        867572.07      0.7249823    
     18800   0.0001         10.88          46569.817      826390.69      41902.584      784488.11      2375352.9      867572.07      0.7249823    
     19000   0.0001         10.9           46287.573      826256.8       41648.627      784608.18      2375630.5      867572.07      0.7249823    
     19200   0.0001         10.92          46335.994      826245.19      41692.194      784553         2375482        867572.07      0.7249823    
     19400   0.0001         10.94          46285.332      826241.94      41646.61       784595.33      2375511.1      867572.07      0.7249823    
     19600   0.0001         10.96          46113.268      826022.14      41491.79       784530.35      2375332.9      867572.07      0.7249823    
     19800   0.0001         10.98          46290.461      826169.37      41651.225      784518.14      2375353.4      867572.07      0.7249823    
     20000   0.0001         11             46563.228      826373.9       41896.656      784477.24      2375376.5      867572.07      0.7249823    
     20200   0.0001         11.02          46295.808      826207.18      41656.036      784551.14      2375345.8      867572.07      0.7249823    
     20400   0.0001         11.04          46374.827      826216.44      41727.136      784489.31      2375278.8      867572.07      0.7249823    
     20600   0.0001         11.06          46292.494      826144.46      41653.054      784491.4       2375147.9      867572.07      0.7249823    
     20800   0.0001         11.08          46438.954      826268.63      41784.836      784483.79      2375218.6      867572.07      0.7249823    
     21000   0.0001         11.1           46708.646      826532.68      42027.5        784505.18      2375305.9      867572.07      0.7249823    
     21200   0.0001         11.12          46867.324      826501.6       42170.274      784331.33      2374922.7      867572.07      0.7249823    
     21400   0.0001         11.14          46730.61       826483.12      42047.262      784435.86      2375239.3      867572.07      0.7249823    
     21600   0.0001         11.16          46818.243      826553.05      42126.113      784426.93      2375134        867572.07      0.7249823    
     21800   0.0001         11.18          46883.077      826535.73      42184.449      784351.28      2374949.7      867572.07      0.7249823    
     22000   0.0001         11.2           46845.683      826495.99      42150.802      784345.18      2374951.9      867572.07      0.7249823    
     22200   0.0001         11.22          47269.806      826834.26      42532.42       784301.84      2375036        867572.07      0.7249823    
     22400   0.0001         11.24          47172.202      826771.22      42444.598      784326.62      2375014        867572.07      0.7249823    
     22600   0.0001         11.26          47416.632      826941.21      42664.531      784276.68      2374938.3      867572.07      0.7249823    
     22800   0.0001         11.28          47249.566      826830.61      42514.208      784316.4       2374975.2      867572.07      0.7249823    
     23000   0.0001         11.3           47396.569      826944.57      42646.479      784298.09      2375064.9      867572.07      0.7249823    
     23200   0.0001         11.32          47553.403      827044.74      42787.595      784257.15      2374880.3      867572.07      0.7249823    
     23400   0.0001         11.34          47188.834      826803.56      42459.563      784344         2375039.9      867572.07      0.7249823    
     23600   0.0001         11.36          47952.276      827359.3       43146.493      784212.8       2374974.9      867572.07      0.7249823    
     23800   0.0001         11.38          47597.189      827025         42826.993      784198.01      2374685.9      867572.07      0.7249823    
     24000   0.0001         11.4           47604.464      827127.19      42833.538      784293.65      2375007.8      867572.07      0.7249823    
     24200   0.0001         11.42          47533.624      826988.33      42769.798      784218.53      2374734.8      867572.07      0.7249823    
     24400   0.0001         11.44          47535.94       826947.13      42771.882      784175.25      2374634.5      867572.07      0.7249823    
     24600   0.0001         11.46          47857.473      827218.82      43061.191      784157.63      2374646.2      867572.07      0.7249823    
     24800   0.0001         11.48          47599.176      827063.81      42828.78       784235.03      2374812.4      867572.07      0.7249823    
     25000   0.0001         11.5           47459.322      826893.67      42702.943      784190.73      2374608.6      867572.07      0.7249823    
     25200   0.0001         11.52          47853.86       827224.76      43057.94       784166.82      2374711.3      867572.07      0.7249823    
     25400   0.0001         11.54          48253.131      827597.16      43417.196      784179.96      2374928.8      867572.07      0.7249823    
     25600   0.0001         11.56          47656.366      827070.27      42880.239      784190.03      2374655.2      867572.07      0.7249823    
     25800   0.0001         11.58          48128.859      827449.29      43305.378      784143.91      2374714.6      867572.07      0.7249823    
     26000   0.0001         11.6           48542.856      827783.94      43677.884      784106.06      2374838        867572.07      0.7249823    
     26200   0.0001         11.62          48010.137      827321.96      43198.555      784123.4       2374626.4      867572.07      0.7249823    
     26400   0.0001         11.64          47963.146      827271.28      43156.273      784115         2374530.8      867572.07      0.7249823    
     26600   0.0001         11.66          48316.899      827609.97      43474.573      784135.4       2374721.9      867572.07      0.7249823    
     26800   0.0001         11.68          48176.203      827493.63      43347.977      784145.65      2374686.8      867572.07      0.7249823    
     27000   0.0001         11.7           48660.436      827874.81      43783.681      784091.13      2374802.3      867572.07      0.7249823    
     27200   0.0001         11.72          47939.596      827279.97      43135.083      784144.89      2374624.4      867572.07      0.7249823    
     27400   0.0001         11.74          47831.306      827186.05      43037.646      784148.4       2374568.6      867572.07      0.7249823    
     27600   0.0001         11.76          48431.474      827715.45      43577.665      784137.79      2374847.4      867572.07      0.7249823    
     27800   0.0001         11.78          48424.831      827641.33      43571.688      784069.64      2374557.4      867572.07      0.7249823    
     28000   0.0001         11.8           48283.96       827550.66      43444.935      784105.73      2374621.6      867572.07      0.7249823    
     28200   0.0001         11.82          48488.059      827743.31      43628.58       784114.73      2374776.6      867572.07      0.7249823    
     28400   0.0001         11.84          48481.659      827721.56      43622.821      784098.74      2374720.2      867572.07      0.7249823    
     28600   0.0001         11.86          48612.228      827814.05      43740.304      784073.74      2374579.2      867572.07      0.7249823    
     28800   0.0001         11.88          48336.927      827590.95      43492.593      784098.36      2374593.1      867572.07      0.7249823    
     29000   0.0001         11.9           48387.84       827641.41      43538.404      784103.01      2374637.9      867572.07      0.7249823    
     29200   0.0001         11.92          48550.621      827788.52      43684.872      784103.65      2374686.3      867572.07      0.7249823    
     29400   0.0001         11.94          48722.779      827919.35      43839.776      784079.57      2374748        867572.07      0.7249823    
     29600   0.0001         11.96          48465.683      827747.52      43608.446      784139.07      2374757.4      867572.07      0.7249823    
     29800   0.0001         11.98          48361.202      827612.12      43514.436      784097.69      2374547.9      867572.07      0.7249823    
     30000   0.0001         12             48494.311      827726.43      43634.205      784092.22      2374652.4      867572.07      0.7249823    
     30200   0.0001         12.02          48160.125      827443.22      43333.511      784109.71      2374504.9      867572.07      0.7249823    
     30400   0.0001         12.04          48692.047      827854.7       43812.124      784042.58      2374570.6      867572.07      0.7249823    
     30600   0.0001         12.06          48411.206      827652.34      43559.429      784092.92      2374564.1      867572.07      0.7249823    
     30800   0.0001         12.08          48427.512      827649.37      43574.101      784075.27      2374507.8      867572.07      0.7249823    
     31000   0.0001         12.1           48404.937      827641.89      43553.788      784088.1       2374559.7      867572.07      0.7249823    
     31200   0.0001         12.12          48430.696      827666.13      43576.965      784089.16      2374514.1      867572.07      0.7249823    
     31400   0.0001         12.14          48486.563      827687.6       43627.233      784060.37      2374460.7      867572.07      0.7249823    
     31600   0.0001         12.16          48682.214      827880.27      43803.277      784077         2374704.5      867572.07      0.7249823    
     31800   0.0001         12.18          48416.439      827640.3       43564.137      784076.16      2374491        867572.07      0.7249823    
     32000   0.0001         12.2           48593.784      827774.55      43723.709      784050.84      2374511        867572.07      0.7249823    
     32200   0.0001         12.22          48701.19       827916.12      43820.351      784095.77      2374756.6      867572.07      0.7249823    
     32400   0.0001         12.24          48664.448      827835.36      43787.291      784048.07      2374407.8      867572.07      0.7249823    
     32600   0.0001         12.26          48577.571      827801.21      43709.121      784092.09      2374638.1      867572.07      0.7249823    
     32800   0.0001         12.28          48828.86       827981.95      43935.226      784046.72      2374519.4      867572.07      0.7249823    
     33000   0.0001         12.3           48620.861      827812.85      43748.072      784064.78      2374526.6      867572.07      0.7249823    
     33200   0.0001         12.32          48702.512      827881.08      43821.54       784059.54      2374500.1      867572.07      0.7249823    
     33400   0.0001         12.34          48888.063      828017.96      43988.495      784029.46      2374473.6      867572.07      0.7249823    
     33600   0.0001         12.36          48842.864      827979.67      43947.826      784031.85      2374524        867572.07      0.7249823    
     33800   0.0001         12.38          48728.506      827885.91      43844.929      784040.99      2374458.2      867572.07      0.7249823    
     34000   0.0001         12.4           48781.344      828020.53      43892.472      784128.06      2374772.1      867572.07      0.7249823    
     34200   0.0001         12.42          48897.774      828040.05      43997.232      784042.82      2374555.1      867572.07      0.7249823    
     34400   0.0001         12.44          48777.718      827963.86      43889.208      784074.65      2374561.9      867572.07      0.7249823    
     34600   0.0001         12.46          48696.779      827866.06      43816.381      784049.68      2374457.2      867572.07      0.7249823    
     34800   0.0001         12.48          48732.796      827889.91      43848.789      784041.13      2374485.9      867572.07      0.7249823    
     35000   0.0001         12.5           48581.387      827788.27      43712.554      784075.72      2374507.9      867572.07      0.7249823    
     35200   0.0001         12.52          48644.97       827911.56      43769.765      784141.79      2374686.4      867572.07      0.7249823    
     35400   0.0001         12.54          48715.697      827992.49      43833.403      784159.09      2374712        867572.07      0.7249823    
     35600   0.0001         12.56          48894.944      828074.74      43994.686      784080.05      2374653.7      867572.07      0.7249823    
     35800   0.0001         12.58          48783.571      827932.07      43894.475      784037.59      2374463.9      867572.07      0.7249823    
     36000   0.0001         12.6           48757.972      827974.18      43871.441      784102.73      2374660.4      867572.07      0.7249823    
     36200   0.0001         12.62          48835.621      828024.63      43941.308      784083.32      2374618.2      867572.07      0.7249823    
     36400   0.0001         12.64          48677.566      827863.43      43799.094      784064.34      2374560.2      867572.07      0.7249823    
     36600   0.0001         12.66          48779.847      827967.27      43891.124      784076.14      2374558.8      867572.07      0.7249823    
     36800   0.0001         12.68          48985.009      828112.64      44075.725      784036.92      2374563.3      867572.07      0.7249823    
     37000   0.0001         12.7           48758.252      828001.07      43871.694      784129.37      2374652.9      867572.07      0.7249823    
     37200   0.0001         12.72          48827.896      827976.12      43934.358      784041.76      2374493.5      867572.07      0.7249823    
     37400   0.0001         12.74          48855.605      828040.45      43959.29       784081.16      2374564.4      867572.07      0.7249823    
     37600   0.0001         12.76          48661.597      827843.46      43784.725      784058.73      2374434.5      867572.07      0.7249823    
     37800   0.0001         12.78          48576.101      827812.15      43707.798      784104.36      2374547.1      867572.07      0.7249823    
     38000   0.0001         12.8           48773.467      827922.72      43885.383      784037.34      2374375.4      867572.07      0.7249823    
     38200   0.0001         12.82          48827.249      828003.96      43933.775      784070.19      2374521.4      867572.07      0.7249823    
     38400   0.0001         12.84          48729.28       827911.83      43845.625      784066.21      2374504        867572.07      0.7249823    
     38600   0.0001         12.86          49145.256      828238.38      44219.912      784018.47      2374467.6      867572.07      0.7249823    
     38800   0.0001         12.88          49072.661      828221.61      44154.592      784067.02      2374602.8      867572.07      0.7249823    
     39000   0.0001         12.9           48632.271      827814.89      43758.338      784056.55      2374406        867572.07      0.7249823    
     39200   0.0001         12.92          48861.489      828002.65      43964.584      784038.06      2374442.1      867572.07      0.7249823    
     39400   0.0001         12.94          48852.313      828021.74      43956.328      784065.41      2374466.8      867572.07      0.7249823    
     39600   0.0001         12.96          48834.274      827990.52      43940.096      784050.43      2374375.6      867572.07      0.7249823    
     39800   0.0001         12.98          48965.268      828112.17      44057.963      784054.2       2374587.4      867572.07      0.7249823    
     40000   0.0001         13             48923.663      828027.13      44020.527      784006.6       2374347.4      867572.07      0.7249823    
     40200   0.0001         13.02          48691.449      827891.01      43811.586      784079.42      2374483.2      867572.07      0.7249823    
     40400   0.0001         13.04          48850.706      827967.14      43954.882      784012.26      2374348.8      867572.07      0.7249823    
     40600   0.0001         13.06          48657.535      827837.97      43781.071      784056.9       2374407.3      867572.07      0.7249823    
     40800   0.0001         13.08          48837.156      827986.23      43942.69       784043.54      2374448.8      867572.07      0.7249823    
     41000   0.0001         13.1           48973.35       828077.26      44065.234      784012.02      2374336.6      867572.07      0.7249823    
     41200   0.0001         13.12          48939.463      828050.22      44034.744      784015.47      2374391.1      867572.07      0.7249823    
     41400   0.0001         13.14          49121.735      828226.88      44198.748      784028.13      2374532.9      867572.07      0.7249823    
     41600   0.0001         13.16          48778.716      827927.06      43890.106      784036.95      2374329.5      867572.07      0.7249823    
     41800   0.0001         13.18          48844.807      828005.44      43949.574      784055.87      2374454.4      867572.07      0.7249823    
     42000   0.0001         13.2           48827.85       827963.08      43934.316      784028.77      2374347.5      867572.07      0.7249823    
     42200   0.0001         13.22          48957.644      828066.05      44051.103      784014.94      2374351.7      867572.07      0.7249823    
     42400   0.0001         13.24          48905.057      828036.95      44003.786      784033.16      2374439.7      867572.07      0.7249823    
     42600   0.0001         13.26          48686.599      827881.29      43807.221      784074.07      2374439.1      867572.07      0.7249823    
     42800   0.0001         13.28          48978.396      828092.83      44069.774      784023.06      2374334.9      867572.07      0.7249823    
     43000   0.0001         13.3           49053.355      828173.62      44137.222      784036.4       2374460.2      867572.07      0.7249823    
     43200   0.0001         13.32          48931.939      828069.38      44027.973      784041.41      2374406.9      867572.07      0.7249823    
     43400   0.0001         13.34          48805.024      827949.56      43913.778      784035.78      2374276.2      867572.07      0.7249823    
     43600   0.0001         13.36          48893.617      828020.52      43993.492      784027.02      2374315.4      867572.07      0.7249823    
     43800   0.0001         13.38          49023.711      828146.49      44110.548      784035.94      2374478.3      867572.07      0.7249823    
     44000   0.0001         13.4           48916.089      828069.05      44013.712      784055.34      2374483.2      867572.07      0.7249823    
     44200   0.0001         13.42          48750.692      827904.16      43864.891      784039.27      2374318.7      867572.07      0.7249823    
     44400   0.0001         13.44          48914.689      828052.29      44012.453      784039.84      2374399.7      867572.07      0.7249823    
     44600   0.0001         13.46          48911.882      828066.18      44009.927      784056.25      2374355.4      867572.07      0.7249823    
     44800   0.0001         13.48          49183.993      828313.07      44254.767      784058.3       2374524.9      867572.07      0.7249823    
     45000   0.0001         13.5           49071.674      828213.94      44153.704      784060.24      2374612.6      867572.07      0.7249823    
     45200   0.0001         13.52          48976.975      828082.92      44068.496      784014.42      2374386.6      867572.07      0.7249823    
     45400   0.0001         13.54          48856.53       828016.14      43960.122      784056.01      2374415.7      867572.07      0.7249823    
     45600   0.0001         13.56          48998.872      828123.97      44088.198      784035.77      2374353.5      867572.07      0.7249823    
     45800   0.0001         13.58          48975.134      828097.62      44066.84       784030.78      2374366.1      867572.07      0.7249823    
     46000   0.0001         13.6           49073.499      828152.41      44155.347      783997.06      2374327.9      867572.07      0.7249823    
     46200   0.0001         13.62          48984.361      828092.03      44075.142      784016.89      2374383.4      867572.07      0.7249823    
     46400   0.0001         13.64          49055.521      828199.8       44139.171      784060.62      2374556.8      867572.07      0.7249823    
     46600   0.0001         13.66          49093.282      828171.49      44173.146      783998.34      2374261        867572.07      0.7249823    
     46800   0.0001         13.68          48995.896      828114.85      44085.521      784029.33      2374341.2      867572.07      0.7249823    
     47000   0.0001         13.7           48827.151      827978.51      43933.688      784044.83      2374311.9      867572.07      0.7249823    
     47200   0.0001         13.72          48931.991      828082.08      44028.02       784054.06      2374352.4      867572.07      0.7249823    
     47400   0.0001         13.74          48810.331      827998.15      43918.553      784079.6       2374430.4      867572.07      0.7249823    
     47600   0.0001         13.76          48794.188      827929.88      43904.028      784025.86      2374221.6      867572.07      0.7249823    
     47800   0.0001         13.78          49097.827      828203.42      44177.236      784026.19      2374410.4      867572.07      0.7249823    
     48000   0.0001         13.8           48988.21       828097.02      44078.605      784018.42      2374338.6      867572.07      0.7249823    
     48200   0.0001         13.82          49088.93       828177.33      44169.231      784008.1       2374324.5      867572.07      0.7249823    
     48400   0.0001         13.84          48837.672      827966.79      43943.154      784023.63      2374225.9      867572.07      0.7249823    
     48600   0.0001         13.86          48971.368      828061.58      44063.451      783998.13      2374223.9      867572.07      0.7249823    
     48800   0.0001         13.88          48916.957      828025.97      44014.493      784011.48      2374202.7      867572.07      0.7249823    
     49000   0.0001         13.9           49336.71       828374.96      44392.179      783982.78      2374415.2      867572.07      0.7249823    
     49200   0.0001         13.92          48859.05       827996.45      43962.39       784034.06      2374276.7      867572.07      0.7249823    
     49400   0.0001         13.94          49021.853      828138.61      44108.877      784029.73      2374384.7      867572.07      0.7249823    
     49600   0.0001         13.96          49019.688      828105.44      44106.929      783998.51      2374247.5      867572.07      0.7249823    
     49800   0.0001         13.98          49003.551      828097.54      44092.408      784005.13      2374284.1      867572.07      0.7249823    
     50000   0.0001         14             49012.593      828091.63      44100.545      783991.08      2374229.9      867572.07      0.7249823    
     50200   0.0001         14.02          49238.68       828285         44303.973      783981.03      2374357.1      867572.07      0.7249823    
     50400   0.0001         14.04          49001.998      828097.04      44091.012      784006.03      2374216.8      867572.07      0.7249823    
     50600   0.0001         14.06          49158.642      828228.78      44231.956      783996.83      2374342.3      867572.07      0.7249823    
     50800   0.0001         14.08          49061.066      828203.53      44144.159      784059.37      2374455.4      867572.07      0.7249823    
     51000   0.0001         14.1           48919.596      828015.61      44016.868      783998.74      2374194.8      867572.07      0.7249823    
     51200   0.0001         14.12          49239.23       828309.62      44304.468      784005.15      2374405.8      867572.07      0.7249823    
     51400   0.0001         14.14          48988.727      828076.07      44079.07       783997         2374262.1      867572.07      0.7249823    
     51600   0.0001         14.16          49107.238      828190.47      44185.705      784004.76      2374333        867572.07      0.7249823    
     51800   0.0001         14.18          49218.624      828293.45      44285.927      784007.52      2374365.6      867572.07      0.7249823    
     52000   0.0001         14.2           48884.758      828008.8       43985.521      784023.28      2374247.3      867572.07      0.7249823    
     52200   0.0001         14.22          48944.706      828060.54      44039.461      784021.07      2374245.8      867572.07      0.7249823    
     52400   0.0001         14.24          48869.685      827965.95      43971.959      783993.99      2374100.5      867572.07      0.7249823    
     52600   0.0001         14.26          49082.472      828153.25      44163.421      783989.83      2374228        867572.07      0.7249823    
     52800   0.0001         14.28          48833.249      827964.07      43939.175      784024.89      2374248.5      867572.07      0.7249823    
     53000   0.0001         14.3           49043.148      828120.03      44128.037      783991.99      2374267.3      867572.07      0.7249823    
     53200   0.0001         14.32          48979.259      828082.61      44070.551      784012.06      2374253.7      867572.07      0.7249823    
     53400   0.0001         14.34          48859.315      827959.26      43962.628      783996.63      2374099.8      867572.07      0.7249823    
     53600   0.0001         14.36          48647.706      827801.83      43772.227      784029.61      2374140.1      867572.07      0.7249823    
     53800   0.0001         14.38          48841.829      827969.28      43946.895      784022.38      2374218.4      867572.07      0.7249823    
     54000   0.0001         14.4           48656.298      827803.28      43779.958      784023.33      2374080.3      867572.07      0.7249823    
     54200   0.0001         14.42          48843.297      827970.89      43948.215      784022.67      2374212        867572.07      0.7249823    
     54400   0.0001         14.44          49048.383      828132.18      44132.748      783999.43      2374231.9      867572.07      0.7249823    
     54600   0.0001         14.46          48877.171      827993.29      43978.694      784014.6       2374143        867572.07      0.7249823    
     54800   0.0001         14.48          49092.115      828168.42      44172.097      783996.32      2374256.4      867572.07      0.7249823    
     55000   0.0001         14.5           48957.356      828059.83      44050.843      784008.99      2374234.1      867572.07      0.7249823    
     55200   0.0001         14.52          49193.036      828249.78      44262.904      783986.88      2374224.7      867572.07      0.7249823    
     55400   0.0001         14.54          49004.995      828117.6       44093.708      784023.89      2374268.8      867572.07      0.7249823    
     55600   0.0001         14.56          48943.526      828056.16      44038.399      784017.76      2374173.7      867572.07      0.7249823    
     55800   0.0001         14.58          49119.789      828184.59      44196.998      783987.6       2374237.9      867572.07      0.7249823    
     56000   0.0001         14.6           48907.162      827996.46      44005.68       783990.78      2374086.7      867572.07      0.7249823    
     56200   0.0001         14.62          48967.137      828049.99      44059.644      783990.34      2374176.1      867572.07      0.7249823    
     56400   0.0001         14.64          49067.936      828149.66      44150.341      783999.32      2374256.7      867572.07      0.7249823    
     56600   0.0001         14.66          48901.324      827997.71      44000.427      783997.28      2374120.7      867572.07      0.7249823    
     56800   0.0001         14.68          49180.662      828214.97      44251.769      783963.2       2374175.4      867572.07      0.7249823    
     57000   0.0001         14.7           49253.084      828295.3       44316.934      783978.37      2374252.7      867572.07      0.7249823    
     57200   0.0001         14.72          49130.303      828172.68      44206.458      783966.22      2374117.5      867572.07      0.7249823    
     57400   0.0001         14.74          49190.224      828244.86      44260.373      783984.48      2374190.8      867572.07      0.7249823    
     57600   0.0001         14.76          49046.744      828128.21      44131.273      783996.93      2374155.9      867572.07      0.7249823    
     57800   0.0001         14.78          48916.925      828002.64      44014.464      783988.18      2374137.4      867572.07      0.7249823    
     58000   0.0001         14.8           49020.927      828094.31      44108.043      783986.26      2374147.5      867572.07      0.7249823    
     58200   0.0001         14.82          49104.904      828165.98      44183.604      783982.38      2374174.8      867572.07      0.7249823    
     58400   0.0001         14.84          49156.516      828213.36      44230.043      783983.32      2374163.7      867572.07      0.7249823    
     58600   0.0001         14.86          48984.071      828060.39      44074.881      783985.51      2374109.7      867572.07      0.7249823    
     58800   0.0001         14.88          49153.248      828216.14      44227.103      783989.04      2374273        867572.07      0.7249823    
     59000   0.0001         14.9           48984.462      828091.54      44075.233      784016.3       2374200.8      867572.07      0.7249823    
     59200   0.0001         14.92          48870.329      827970.25      43972.538      783997.72      2374101.9      867572.07      0.7249823    
     59400   0.0001         14.94          48991.972      828080.71      44081.99       783998.72      2374168.9      867572.07      0.7249823    
     59600   0.0001         14.96          49193.299      828226.68      44263.14       783963.54      2374159.1      867572.07      0.7249823    
     59800   0.0001         14.98          49075.255      828173.7       44156.927      784016.77      2374308.8      867572.07      0.7249823    
     60000   0.0001         15             48879.298      827971.6       43980.609      783990.99      2374063.2      867572.07      0.7249823    
Loop time of 94.7858 on 1 procs for 50000 steps with 6962 atoms

Performance: 4.558 ns/day, 5.266 hours/ns, 527.505 timesteps/s, 3.672 Matom-step/s
99.2% CPU use with 1 MPI tasks x 1 OpenMP threads

MPI task timing breakdown:
Section |  min time  |  avg time  |  max time  |%varavg| %total
---------------------------------------------------------------
Pair    | 63.378     | 63.378     | 63.378     |   0.0 | 66.86
Neigh   | 1.1749     | 1.1749     | 1.1749     |   0.0 |  1.24
Comm    | 18.514     | 18.514     | 18.514     |   0.0 | 19.53
Output  | 1.5036     | 1.5036     | 1.5036     |   0.0 |  1.59
Modify  | 7.446      | 7.446      | 7.446      |   0.0 |  7.86
Other   |            | 2.769      |            |       |  2.92

Nlocal:           6962 ave        6962 max        6962 min
Histogram: 1 0 0 0 0 0 0 0 0 0
Nghost:         128087 ave      128087 max      128087 min
Histogram: 1 0 0 0 0 0 0 0 0 0
Neighs:              0 ave           0 max           0 min
Histogram: 1 0 0 0 0 0 0 0 0 0
FullNghs:       826212 ave      826212 max      826212 min
Histogram: 1 0 0 0 0 0 0 0 0 0

Total # of neighbors = 826212
Ave neighs/atom = 118.67452
Neighbor list builds = 1572
Dangerous builds = 0
System init for write_restart ...
WARNING: Proc sub-domain size < neighbor skin, could lead to lost atoms (src/domain.cpp:1204)
Total wall time: 0:02:10
