
Lmod is automatically replacing "gcc/12.3" with "intel/2023.2.1".


Due to MODULEPATH changes, the following have been reloaded:
  1) aocl-blas/5.1     2) aocl-lapack/5.1     3) flexiblas/3.3.1     4) openmpi/4.1.5

LAMMPS (22 Jul 2025 - Development - patch_22Jul2025-72-g8b7fdf9ad3)
KOKKOS mode with Kokkos version 4.6.2 is enabled
  will use up to 1 GPU(s) per node
  using 1 OpenMP thread(s) per MPI task
Reading data file ...
  orthogonal box = (0 0 0) to (162 162 150)
  1 by 1 by 1 MPI processor grid
  reading atoms ...
  130899 atoms
  read_data CPU = 0.235 seconds
128000 atoms in group substrate_group
2899 atoms in group particle_group
Reading eam/alloy potential file /home/wuwen123/comp/yao/lammps/potentials/AlCu.eam.alloy with DATE: 2008-10-01
Changing box ...
Switching to 'neigh_modify every 1 delay 0 check yes' setting during minimization
Neighbor list info ...
  update: every = 1 steps, delay = 0 steps, check = yes
  max neighbors/atom: 2000, page size: 100000
  master list distance cutoff = 8.1825
  ghost atom cutoff = 8.1825
  binsize = 8.1825, bins = 20 20 16
  1 neighbor lists, perpetual/occasional/extra = 1 0 0
  (1) pair eam/alloy/kk, perpetual
      attributes: full, newton off, kokkos_device
      pair build: full/bin/kk/device
      stencil: full/bin/3d
      bin: kk/device
Setting up cg/kk style minimization ...
  Unit style    : metal
  Current step  : 0
WARNING: Fix MINIMIZE/kk not compatible with sending data in Kokkos communication (src/KOKKOS/comm_kokkos.cpp:766)
WARNING: Fix with atom-based arrays not compatible with sending data in Kokkos communication, switching to classic exchange/border communication (src/KOKKOS/comm_kokkos.cpp:779)
WARNING: Fix MINIMIZE/kk not compatible with Kokkos sorting on device (src/KOKKOS/atom_kokkos.cpp:212)
WARNING: Fix with atom-based arrays not compatible with Kokkos sorting on device, switching to classic host sorting (src/KOKKOS/atom_kokkos.cpp:218)
Per MPI rank memory allocation (min/avg/max) = 40.44 | 40.44 | 40.44 Mbytes
   Step          Temp          E_pair         E_mol          TotEng         Press          Volume    
         0   0             -432603.64      0             -432603.64     -1585.2738      3435667.6    
        23   0             -432625.91      0             -432625.91     -858.13137      3435667.6    
Loop time of 0.171742 on 1 procs for 23 steps with 130899 atoms

92.9% CPU use with 1 MPI tasks x 1 OpenMP threads

Minimization stats:
  Stopping criterion = linesearch alpha is zero
  Energy initial, next-to-last, final = 
     -432603.639260474  -432625.907008582  -432625.907008582
  Force two-norm initial, final = 14.124092 0.13113456
  Force max component initial, final = 0.37864385 0.0035973836
  Final line search alpha, max atom move = 4.7683716e-07 1.7153662e-09
  Iterations, force evaluations = 23 87

MPI task timing breakdown:
Section |  min time  |  avg time  |  max time  |%varavg| %total
---------------------------------------------------------------
Pair    | 0.072485   | 0.072485   | 0.072485   |   0.0 | 42.21
Neigh   | 0          | 0          | 0          |   0.0 |  0.00
Comm    | 0.00089422 | 0.00089422 | 0.00089422 |   0.0 |  0.52
Output  | 0          | 0          | 0          |   0.0 |  0.00
Modify  | 0          | 0          | 0          |   0.0 |  0.00
Other   |            | 0.09836    |            |       | 57.27

Nlocal:         130899 ave      130899 max      130899 min
Histogram: 1 0 0 0 0 0 0 0 0 0
Nghost:          30420 ave       30420 max       30420 min
Histogram: 1 0 0 0 0 0 0 0 0 0
Neighs:              0 ave           0 max           0 min
Histogram: 1 0 0 0 0 0 0 0 0 0
FullNghs:  1.76884e+07 ave 1.76884e+07 max 1.76884e+07 min
Histogram: 1 0 0 0 0 0 0 0 0 0

Total # of neighbors = 17688438
Ave neighs/atom = 135.13043
Neighbor list builds = 0
Dangerous builds = 0
System init for write_data ...
Setting up Verlet run ...
  Unit style    : metal
  Current step  : 23
  Time step     : 0.0005
Per MPI rank memory allocation (min/avg/max) = 43.29 | 43.29 | 43.29 Mbytes
   Step          Temp           Pxx            Pyy            Pzz           Press          Volume    
        23   300            344.26938      349.53307      1468.2704      720.69093      3432091.6    
      1000   152.73784      3.8037777      8.5367279      1214.6831      409.00786      3472985.7    
      2000   157.41333      0.86745238    -6.2757159      495.94152      163.51108      3469247.8    
      3000   161.65706      4.8440161     -4.2534202     -677.15806     -225.52249      3456927      
      4000   165.59053      0.09953105    -0.28947732    -1351.4767     -450.55555      3453516.9    
      5000   169.57915      13.241265     -9.5279929     -1695.1275     -563.80475      3444342.9    
      6000   175.40673      1.1027414      5.996093      -1067.9709     -353.62401      3453308.7    
      7000   181.32709      5.3603089     -4.5258672     -215.40603     -71.523864      3468750.6    
      8000   185.90803     -4.9366333      16.622569      850.72588      287.47061      3480367.9    
      9000   190.47417     -10.305206      7.1150767      1348.556       448.45529      3494912.1    
     10000   195.9123       3.8917685      2.719754       1563.8894      523.50032      3494960.4    
     11000   200.64131     -1.225286       4.3600979      1047.3844      350.17308      3489755.4    
     12000   205.61584     -0.72608019    -8.8176016      191.52252      60.659612      3477741.6    
     13000   210.00923     -7.2151095      3.6019689     -936.08581     -313.23298      3464407.9    
     14000   213.70994      4.464743      -1.2793531     -1622.7682     -539.86092      3461599.2    
     15000   217.76745      5.8811772     -2.211041      -1748.8423     -581.72405      3466899.4    
     16000   223.24467     -1.3957833      4.7406023     -946.64371     -314.43296      3474140      
     17000   228.56894      11.560861      0.27418042     123.69933      45.178125      3485926.4    
     18000   233.15706     -7.1136103      7.6173012      1120.9575      373.8204       3502284.1    
     19000   236.46018      6.7020907     -14.435613      1577.5296      523.26537      3515416.8    
     20000   240.19604     -6.5577042      3.9355096      1536.8784      511.41873      3509084.3    
     21000   246.04285     -3.6453333      11.139908      820.76019      276.08492      3503197.2    
     22000   249.28179      7.768894      -11.909819     -163.20605     -55.782326      3491782.8    
     23000   252.08707     -8.251053      -2.1325056     -1218.3684     -409.584        3486743.9    
     24000   254.29674     -6.7567819      0.98346816    -1661.8842     -555.88585      3473168.2    
     25000   258.47016      5.5697574      4.9146061     -1484.8169     -491.44419      3479521.3    
     26000   262.64623      27.400318     -5.0772878     -691.96084     -223.2126       3482750.6    
     27000   266.48302      11.377506      2.8138933      336.25205      116.81448      3499355.3    
     28000   269.56218     -3.0664116      8.874392       1114.5065      373.43815      3524753.6    
     29000   271.97118     -6.8606458      11.03888       1489.4615      497.8799       3524954.7    
     30000   274.78917      2.341884       1.6101938      1351.6912      451.88109      3531337.3    
     31000   276.91331     -4.4048846     -1.5765016      764.8489       252.95584      3511228.3    
     32000   278.94975     -11.42116       11.550247     -211.44503     -70.438648      3495566.7    
     33000   281.1279      -2.1847015     -12.027471     -1069.6952     -361.30247      3493018.5    
     34000   282.66205      5.9949764      3.17144       -1627.4071     -539.41356      3482061.6    
     35000   284.83175     -8.469972       14.215596     -1370.9374     -455.06391      3491167.8    
     36000   287.37869      1.4109501     -0.45438301    -707.26389     -235.43577      3508963      
     37000   289.71015     -10.137351      14.665025      354.45262      119.6601       3514170.3    
     38000   291.24064      5.1093574     -0.71375009     1066.3033      356.89964      3526441.2    
     39000   290.82096     -15.445942      6.2320286      1450.8975      480.56119      3527955.1    
     40000   292.76451     -13.82423      -2.5653614      1218.3106      400.64033      3530420.9    
     41000   294.98557      24.663787     -36.829073      685.16731      224.33401      3521097.2    
     42000   294.60222      8.8969936     -20.436385     -250.40636     -87.31525       3509150.9    
     43000   295.51069      4.534383       2.005676      -929.80832     -307.75609      3501172.2    
     44000   295.80566     -6.3507615      5.6101473     -1514.8125     -505.18438      3490142.9    
     45000   296.34709     -11.80277       19.599347     -1235.6691     -409.29083      3494561.2    
     46000   297.98183      8.2469661     -1.6908893     -660.44422     -217.96272      3510558      
     47000   299.31777      14.62684      -11.41403       278.05506      93.755957      3516995.4    
     48000   299.42196      7.8705408     -11.330304      852.50415      283.0148       3526765      
     49000   299.8696       19.706674     -1.0952784      1335.8161      451.47583      3538451.7    
     50000   299.14565     -19.631204      3.6839578      1120.6909      368.2479       3538271      
     50023   299.58373     -3.3209461     -0.60885657     1119.8951      371.98843      3537994      
Loop time of 81.8219 on 1 procs for 50000 steps with 130899 atoms

Performance: 26.399 ns/day, 0.909 hours/ns, 611.083 timesteps/s, 79.990 Matom-step/s
98.5% CPU use with 1 MPI tasks x 1 OpenMP threads

MPI task timing breakdown:
Section |  min time  |  avg time  |  max time  |%varavg| %total
---------------------------------------------------------------
Pair    | 57.09      | 57.09      | 57.09      |   0.0 | 69.77
Neigh   | 0.4276     | 0.4276     | 0.4276     |   0.0 |  0.52
Comm    | 0.86053    | 0.86053    | 0.86053    |   0.0 |  1.05
Output  | 9.0018     | 9.0018     | 9.0018     |   0.0 | 11.00
Modify  | 12.318     | 12.318     | 12.318     |   0.0 | 15.05
Other   |            | 2.124      |            |       |  2.60

Nlocal:         130899 ave      130899 max      130899 min
Histogram: 1 0 0 0 0 0 0 0 0 0
Nghost:          27147 ave       27147 max       27147 min
Histogram: 1 0 0 0 0 0 0 0 0 0
Neighs:              0 ave           0 max           0 min
Histogram: 1 0 0 0 0 0 0 0 0 0
FullNghs:  1.73387e+07 ave 1.73387e+07 max 1.73387e+07 min
Histogram: 1 0 0 0 0 0 0 0 0 0

Total # of neighbors = 17338702
Ave neighs/atom = 132.45863
Neighbor list builds = 423
Dangerous builds = 0
WARNING: Detected non-ASCII characters in input. Will try to continue by replacing with ASCII equivalents where known. (src/input.cpp:478)
15522 atoms in group frozen_atoms
WARNING: No fixes with time integration, atoms won't move
For more information see https://docs.lammps.org/err0028 (src/verlet.cpp:60)
Setting up Verlet run ...
  Unit style    : metal
  Current step  : 50023
  Time step     : 0.0005
Per MPI rank memory allocation (min/avg/max) = 43.08 | 43.08 | 43.08 Mbytes
   Step          Temp           Pxx            Pyy            Pzz           Press          Volume    
     50023   278.17868     -180.68571     -180.75047      1150.5913      263.05172      3532580.6    
     51000   278.17868     -180.68571     -180.75047      1150.5913      263.05172      3532580.6    
     52000   278.17868     -180.68571     -180.75047      1150.5913      263.05172      3532580.6    
     53000   278.17868     -180.68571     -180.75047      1150.5913      263.05172      3532580.6    
     54000   278.17868     -180.68571     -180.75047      1150.5913      263.05172      3532580.6    
     55000   278.17868     -180.68571     -180.75047      1150.5913      263.05172      3532580.6    
     56000   278.17868     -180.68571     -180.75047      1150.5913      263.05172      3532580.6    
     57000   278.17868     -180.68571     -180.75047      1150.5913      263.05172      3532580.6    
     58000   278.17868     -180.68571     -180.75047      1150.5913      263.05172      3532580.6    
     59000   278.17868     -180.68571     -180.75047      1150.5913      263.05172      3532580.6    
     60000   278.17868     -180.68571     -180.75047      1150.5913      263.05172      3532580.6    
     61000   278.17868     -180.68571     -180.75047      1150.5913      263.05172      3532580.6    
     62000   278.17868     -180.68571     -180.75047      1150.5913      263.05172      3532580.6    
     63000   278.17868     -180.68571     -180.75047      1150.5913      263.05172      3532580.6    
     64000   278.17868     -180.68571     -180.75047      1150.5913      263.05172      3532580.6    
     65000   278.17868     -180.68571     -180.75047      1150.5913      263.05172      3532580.6    
     66000   278.17868     -180.68571     -180.75047      1150.5913      263.05172      3532580.6    
     67000   278.17868     -180.68571     -180.75047      1150.5913      263.05172      3532580.6    
     68000   278.17868     -180.68571     -180.75047      1150.5913      263.05172      3532580.6    
     69000   278.17868     -180.68571     -180.75047      1150.5913      263.05172      3532580.6    
     70000   278.17868     -180.68571     -180.75047      1150.5913      263.05172      3532580.6    
     71000   278.17868     -180.68571     -180.75047      1150.5913      263.05172      3532580.6    
     72000   278.17868     -180.68571     -180.75047      1150.5913      263.05172      3532580.6    
     73000   278.17868     -180.68571     -180.75047      1150.5913      263.05172      3532580.6    
     74000   278.17868     -180.68571     -180.75047      1150.5913      263.05172      3532580.6    
     75000   278.17868     -180.68571     -180.75047      1150.5913      263.05172      3532580.6    
     76000   278.17868     -180.68571     -180.75047      1150.5913      263.05172      3532580.6    
     77000   278.17868     -180.68571     -180.75047      1150.5913      263.05172      3532580.6    
     78000   278.17868     -180.68571     -180.75047      1150.5913      263.05172      3532580.6    
     79000   278.17868     -180.68571     -180.75047      1150.5913      263.05172      3532580.6    
     80000   278.17868     -180.68571     -180.75047      1150.5913      263.05172      3532580.6    
     81000   278.17868     -180.68571     -180.75047      1150.5913      263.05172      3532580.6    
     82000   278.17868     -180.68571     -180.75047      1150.5913      263.05172      3532580.6    
     83000   278.17868     -180.68571     -180.75047      1150.5913      263.05172      3532580.6    
     84000   278.17868     -180.68571     -180.75047      1150.5913      263.05172      3532580.6    
     85000   278.17868     -180.68571     -180.75047      1150.5913      263.05172      3532580.6    
     86000   278.17868     -180.68571     -180.75047      1150.5913      263.05172      3532580.6    
     87000   278.17868     -180.68571     -180.75047      1150.5913      263.05172      3532580.6    
     88000   278.17868     -180.68571     -180.75047      1150.5913      263.05172      3532580.6    
     89000   278.17868     -180.68571     -180.75047      1150.5913      263.05172      3532580.6    
     90000   278.17868     -180.68571     -180.75047      1150.5913      263.05172      3532580.6    
     91000   278.17868     -180.68571     -180.75047      1150.5913      263.05172      3532580.6    
     92000   278.17868     -180.68571     -180.75047      1150.5913      263.05172      3532580.6    
     93000   278.17868     -180.68571     -180.75047      1150.5913      263.05172      3532580.6    
     94000   278.17868     -180.68571     -180.75047      1150.5913      263.05172      3532580.6    
     95000   278.17868     -180.68571     -180.75047      1150.5913      263.05172      3532580.6    
     96000   278.17868     -180.68571     -180.75047      1150.5913      263.05172      3532580.6    
     97000   278.17868     -180.68571     -180.75047      1150.5913      263.05172      3532580.6    
     98000   278.17868     -180.68571     -180.75047      1150.5913      263.05172      3532580.6    
     99000   278.17868     -180.68571     -180.75047      1150.5913      263.05172      3532580.6    
    100000   278.17868     -180.68571     -180.75047      1150.5913      263.05172      3532580.6    
    100023   278.17868     -180.68571     -180.75047      1150.5913      263.05172      3532580.6    
Loop time of 95.6803 on 1 procs for 50000 steps with 130899 atoms

Performance: 22.575 ns/day, 1.063 hours/ns, 522.574 timesteps/s, 68.404 Matom-step/s
94.3% CPU use with 1 MPI tasks x 1 OpenMP threads

MPI task timing breakdown:
Section |  min time  |  avg time  |  max time  |%varavg| %total
---------------------------------------------------------------
Pair    | 21.753     | 21.753     | 21.753     |   0.0 | 22.74
Neigh   | 0          | 0          | 0          |   0.0 |  0.00
Comm    | 0.15519    | 0.15519    | 0.15519    |   0.0 |  0.16
Output  | 39.311     | 39.311     | 39.311     |   0.0 | 41.09
Modify  | 32.85      | 32.85      | 32.85      |   0.0 | 34.33
Other   |            | 1.611      |            |       |  1.68

Nlocal:         130899 ave      130899 max      130899 min
Histogram: 1 0 0 0 0 0 0 0 0 0
Nghost:          27168 ave       27168 max       27168 min
Histogram: 1 0 0 0 0 0 0 0 0 0
Neighs:              0 ave           0 max           0 min
Histogram: 1 0 0 0 0 0 0 0 0 0
FullNghs:  1.73382e+07 ave 1.73382e+07 max 1.73382e+07 min
Histogram: 1 0 0 0 0 0 0 0 0 0

Total # of neighbors = 17338176
Ave neighs/atom = 132.45461
Neighbor list builds = 0
Dangerous builds = 0
Total wall time: 0:02:59
