
Lmod is automatically replacing "gcc/12.3" with "intel/2023.2.1".


Due to MODULEPATH changes, the following have been reloaded:
  1) aocl-blas/5.1     2) aocl-lapack/5.1     3) flexiblas/3.3.1     4) openmpi/4.1.5

LAMMPS (22 Jul 2025 - Development - patch_22Jul2025-72-g8b7fdf9ad3)
KOKKOS mode with Kokkos version 4.6.2 is enabled
  will use up to 1 GPU(s) per node
  using 1 OpenMP thread(s) per MPI task
Reading data file ...
  orthogonal box = (0 0 0) to (162 162 150)
  1 by 1 by 1 MPI processor grid
  reading atoms ...
  130899 atoms
  read_data CPU = 0.297 seconds
128000 atoms in group substrate_group
2899 atoms in group particle_group
Reading eam/alloy potential file /home/wuwen123/comp/yao/lammps/potentials/AlCu.eam.alloy with DATE: 2008-10-01
Changing box ...
Switching to 'neigh_modify every 1 delay 0 check yes' setting during minimization
Neighbor list info ...
  update: every = 1 steps, delay = 0 steps, check = yes
  max neighbors/atom: 2000, page size: 100000
  master list distance cutoff = 8.1825
  ghost atom cutoff = 8.1825
  binsize = 8.1825, bins = 20 20 16
  1 neighbor lists, perpetual/occasional/extra = 1 0 0
  (1) pair eam/alloy/kk, perpetual
      attributes: full, newton off, kokkos_device
      pair build: full/bin/kk/device
      stencil: full/bin/3d
      bin: kk/device
Setting up cg/kk style minimization ...
  Unit style    : metal
  Current step  : 0
WARNING: Fix MINIMIZE/kk not compatible with sending data in Kokkos communication (src/KOKKOS/comm_kokkos.cpp:766)
WARNING: Fix with atom-based arrays not compatible with sending data in Kokkos communication, switching to classic exchange/border communication (src/KOKKOS/comm_kokkos.cpp:779)
WARNING: Fix MINIMIZE/kk not compatible with Kokkos sorting on device (src/KOKKOS/atom_kokkos.cpp:212)
WARNING: Fix with atom-based arrays not compatible with Kokkos sorting on device, switching to classic host sorting (src/KOKKOS/atom_kokkos.cpp:218)
Per MPI rank memory allocation (min/avg/max) = 40.44 | 40.44 | 40.44 Mbytes
   Step          Temp          E_pair         E_mol          TotEng         Press          Volume    
         0   0             -432603.64      0             -432603.64     -1585.2738      3435667.6    
        23   0             -432625.91      0             -432625.91     -858.13137      3435667.6    
Loop time of 0.162605 on 1 procs for 23 steps with 130899 atoms

97.0% CPU use with 1 MPI tasks x 1 OpenMP threads

Minimization stats:
  Stopping criterion = linesearch alpha is zero
  Energy initial, next-to-last, final = 
     -432603.639260474  -432625.907008582  -432625.907008582
  Force two-norm initial, final = 14.124092 0.13113456
  Force max component initial, final = 0.37864385 0.0035973836
  Final line search alpha, max atom move = 4.7683716e-07 1.7153662e-09
  Iterations, force evaluations = 23 87

MPI task timing breakdown:
Section |  min time  |  avg time  |  max time  |%varavg| %total
---------------------------------------------------------------
Pair    | 0.072488   | 0.072488   | 0.072488   |   0.0 | 44.58
Neigh   | 0          | 0          | 0          |   0.0 |  0.00
Comm    | 0.0007998  | 0.0007998  | 0.0007998  |   0.0 |  0.49
Output  | 0          | 0          | 0          |   0.0 |  0.00
Modify  | 0          | 0          | 0          |   0.0 |  0.00
Other   |            | 0.08932    |            |       | 54.93

Nlocal:         130899 ave      130899 max      130899 min
Histogram: 1 0 0 0 0 0 0 0 0 0
Nghost:          30420 ave       30420 max       30420 min
Histogram: 1 0 0 0 0 0 0 0 0 0
Neighs:              0 ave           0 max           0 min
Histogram: 1 0 0 0 0 0 0 0 0 0
FullNghs:  1.76884e+07 ave 1.76884e+07 max 1.76884e+07 min
Histogram: 1 0 0 0 0 0 0 0 0 0

Total # of neighbors = 17688438
Ave neighs/atom = 135.13043
Neighbor list builds = 0
Dangerous builds = 0
System init for write_data ...
Setting up Verlet run ...
  Unit style    : metal
  Current step  : 23
  Time step     : 0.0005
Per MPI rank memory allocation (min/avg/max) = 43.3 | 43.3 | 43.3 Mbytes
   Step          Temp           Pxx            Pyy            Pzz           Press          Volume    
        23   300            344.26938      349.53307      1468.2704      720.69093      3432091.6    
      1000   152.73784      3.8037777      8.5367279      1214.6831      409.00786      3472985.7    
      2000   157.41333      0.86745238    -6.2757159      495.94152      163.51108      3469247.8    
      3000   161.65706      4.8440161     -4.2534202     -677.15806     -225.52249      3456927      
      4000   165.59053      0.09953105    -0.28947732    -1351.4767     -450.55555      3453516.9    
      5000   169.57915      13.241265     -9.5279929     -1695.1275     -563.80475      3444342.9    
      6000   175.40673      1.1027414      5.996093      -1067.9709     -353.62401      3453308.7    
      7000   181.32709      5.3603089     -4.5258672     -215.40603     -71.523864      3468750.6    
      8000   185.90803     -4.9366333      16.622569      850.72588      287.47061      3480367.9    
      9000   190.47417     -10.305206      7.1150767      1348.556       448.45529      3494912.1    
     10000   195.9123       3.8917685      2.719754       1563.8894      523.50032      3494960.4    
     11000   200.64131     -1.225286       4.3600979      1047.3844      350.17308      3489755.4    
     12000   205.61584     -0.72608019    -8.8176016      191.52252      60.659612      3477741.6    
     13000   210.00923     -7.2151095      3.6019689     -936.08581     -313.23298      3464407.9    
     14000   213.70994      4.464743      -1.2793531     -1622.7682     -539.86092      3461599.2    
     15000   217.76745      5.8811772     -2.211041      -1748.8423     -581.72405      3466899.4    
     16000   223.24467     -1.3957833      4.7406023     -946.64371     -314.43296      3474140      
     17000   228.56894      11.560861      0.27418043     123.69933      45.178125      3485926.4    
     18000   233.15706     -7.1136103      7.6173012      1120.9575      373.8204       3502284.1    
     19000   236.46018      6.7020907     -14.435613      1577.5296      523.26537      3515416.8    
     20000   240.19604     -6.5577042      3.9355096      1536.8784      511.41873      3509084.3    
     21000   246.04285     -3.6453333      11.139908      820.76019      276.08492      3503197.2    
     22000   249.28179      7.7688939     -11.909819     -163.20605     -55.782326      3491782.8    
     23000   252.08707     -8.2510529     -2.1325058     -1218.3684     -409.584        3486743.9    
     24000   254.29674     -6.756783       0.98346827    -1661.8842     -555.88585      3473168.2    
     25000   258.47016      5.5697649      4.9146137     -1484.8169     -491.44418      3479521.3    
     26000   262.64623      27.40031      -5.0772906     -691.96084     -223.21261      3482750.6    
     27000   266.48302      11.377486      2.8138877      336.25205      116.81447      3499355.3    
     28000   269.56218     -3.0664256      8.87436        1114.5064      373.43813      3524753.6    
     29000   271.97118     -6.8606083      11.038925      1489.4615      497.87995      3524954.7    
     30000   274.78917      2.3419037      1.6101956      1351.6912      451.8811       3531337.3    
     31000   276.91331     -4.4050559     -1.5766282      764.84877      252.95569      3511228.3    
     32000   278.94975     -11.421186      11.550699     -211.44508     -70.438523      3495566.7    
     33000   281.12789     -2.1846136     -12.027351     -1069.6951     -361.30235      3493018.5    
     34000   282.66205      5.9950738      3.1713798     -1627.4073     -539.4136       3482061.6    
     35000   284.83174     -8.4697908      14.215448     -1370.9371     -455.0638       3491167.9    
     36000   287.3787       1.4114401     -0.4545091     -707.26298     -235.43535      3508964      
     37000   289.71013     -10.137301      14.665238      354.45174      119.65989      3514170.3    
     38000   291.24066      5.1079915     -0.71398841     1066.3021      356.89871      3526441.4    
     39000   290.82099     -15.447634      6.2315753      1450.8956      480.55986      3527955.4    
     40000   292.76454     -13.823601     -2.5616501      1218.3101      400.64163      3530420.3    
     41000   294.98544      24.663636     -36.831232      685.16469      224.33237      3521096.5    
     42000   294.60206      8.8978471     -20.437664     -250.40642     -87.315414      3509152      
     43000   295.51085      4.5332216      2.025391      -929.79899     -307.74679      3501171.7    
     44000   295.80583     -6.3587016      5.6192152     -1514.7924     -505.17728      3490138.7    
     45000   296.34668     -11.790672      19.589944     -1235.6539     -409.28487      3494553.5    
     46000   297.98215      8.2336433     -1.6933329     -660.48795     -217.98255      3510557      
     47000   299.31798      14.579666     -11.533516      277.94909      93.66508       3516971.1    
     48000   299.42075      7.7913165     -11.172603      852.78746      283.13539      3526755.3    
     49000   299.86642      19.603        -1.1816304      1335.8892      451.43685      3538458.4    
     50000   299.14768     -19.54113       3.7718569      1120.721       368.31726      3538231.8    
     50023   299.58833     -3.1903405     -0.33705881     1120.1528      372.20848      3537955.2    
Loop time of 84.0123 on 1 procs for 50000 steps with 130899 atoms

Performance: 25.711 ns/day, 0.933 hours/ns, 595.151 timesteps/s, 77.905 Matom-step/s
95.0% CPU use with 1 MPI tasks x 1 OpenMP threads

MPI task timing breakdown:
Section |  min time  |  avg time  |  max time  |%varavg| %total
---------------------------------------------------------------
Pair    | 57.537     | 57.537     | 57.537     |   0.0 | 68.49
Neigh   | 0.67106    | 0.67106    | 0.67106    |   0.0 |  0.80
Comm    | 1.2844     | 1.2844     | 1.2844     |   0.0 |  1.53
Output  | 9.1643     | 9.1643     | 9.1643     |   0.0 | 10.91
Modify  | 12.867     | 12.867     | 12.867     |   0.0 | 15.32
Other   |            | 2.488      |            |       |  2.96

Nlocal:         130899 ave      130899 max      130899 min
Histogram: 1 0 0 0 0 0 0 0 0 0
Nghost:          27149 ave       27149 max       27149 min
Histogram: 1 0 0 0 0 0 0 0 0 0
Neighs:              0 ave           0 max           0 min
Histogram: 1 0 0 0 0 0 0 0 0 0
FullNghs:  1.73387e+07 ave 1.73387e+07 max 1.73387e+07 min
Histogram: 1 0 0 0 0 0 0 0 0 0

Total # of neighbors = 17338748
Ave neighs/atom = 132.45898
Neighbor list builds = 423
Dangerous builds = 0
WARNING: Detected non-ASCII characters in input. Will try to continue by replacing with ASCII equivalents where known. (src/input.cpp:478)
15521 atoms in group frozen_atoms
115378 atoms in group mobile_all
Setting up Verlet run ...
  Unit style    : metal
  Current step  : 50023
  Time step     : 0.0005
Per MPI rank memory allocation (min/avg/max) = 43.08 | 43.08 | 43.08 Mbytes
   Step          Temp           Pxx            Pyy            Pzz           Press          Volume    
     50023   278.18327     -180.59813     -180.46743      1150.8715      263.26864      3532571.7    
     51000   276.9905      -686.83557     -727.38115      537.96327     -292.08448      3470925.6    
     52000   276.44779     -1255.0263     -1297.114      -89.973009     -880.70445      3400419      
     53000   275.83135     -1182.5363     -1212.6104      21.901679     -791.08168      3329957.5    
     54000   274.76253     -1911.3213     -1926.9937     -940.34676     -1592.8873      3262623.7    
     55000   277.07725     -1972.2554     -1979.5193     -1020.7579     -1657.5109      3202958.5    
     56000   278.21775     -1291.8811     -1294.5561     -132.53846     -906.32521      3136338.1    
     57000   279.17144     -559.00507     -528.17375      841.5945      -81.861439      3067677.6    
     58000   278.53405     -228.29473     -215.41016      1195.6755      250.65688      2992009.6    
     59000   278.33487      810.5436       758.11626      2401.9889      1323.5496      2935600.6    
     60000   277.66575      1391.7898      1491.6071      3234.1518      2039.1829      2880111.5    
     61000   275.82131      1053.0709      1147.8885      2680.7966      1627.252       2851004.3    
     62000   273.57893      692.76453      620.79189      2050.938       1121.4981      2815346.8    
     63000   274.04846      338.54711      328.00153      1560.9426      742.49708      2798360.9    
     64000   273.44919     -556.32342     -543.54176      445.46781     -218.13246      2781232.6    
     65000   273.3093      -1548.1934     -1599.3657     -704.12307     -1283.8941      2786704.5    
     66000   274.37888     -1614.7962     -1669.6099     -854.89489     -1379.767       2798268.8    
     67000   274.50219     -1487.3019     -1500.7313     -519.96162     -1169.3316      2815378.1    
     68000   274.94737     -1468.3047     -1467.5649     -550.50643     -1162.1253      2835605      
     69000   274.75198     -1303.3543     -1276.6018     -210.49636     -930.15082      2844035      
     70000   274.45846     -630.11172     -671.59855      427.9519      -291.25279      2864616.9    
     71000   275.79523     -860.8887      -936.72156      121.22357     -558.79556      2868855.1    
     72000   275.61368     -1406.4531     -1412.3354     -469.40344     -1096.064       2860744.8    
     73000   275.74195     -1701.702      -1670.9059     -746.76783     -1373.1252      2849521.5    
     74000   274.92448     -1702.7143     -1745.44       -876.43259     -1441.5289      2838176.2    
     75000   275.1272      -2080.4572     -2197.2431     -1375.7488     -1884.483       2823477.1    
     76000   276.17469     -1893.9036     -1925.7352     -1027.8148     -1615.8179      2812063.2    
     77000   276.99391     -1158.0553     -1141.8172     -102.59148     -800.82133      2798982.6    
     78000   278.91147     -400.94034     -355.20301      855.08205      32.979568      2779087.2    
     79000   278.17816     -85.176447     -112.21877      1155.4977      319.36749      2771707.2    
     80000   279.49292      691.27157      672.34032      2204.5595      1189.3905      2761194.8    
     81000   279.14736      734.82713      720.89837      2239.7198      1231.8151      2764966.6    
     82000   279.34078      23.118815      46.952459      1319.5111      463.19412      2768510.9    
     83000   278.36904     -805.47481     -803.94374      333.24701     -425.39051      2780805.9    
     84000   277.80699     -1275.4558     -1321.1146     -331.43494     -976.00176      2795778.5    
     85000   275.89863     -2205.6803     -2195.1576     -1465.7225     -1955.5201      2803651.2    
     86000   273.9837      -2756.0193     -2742.0231     -2179.5094     -2559.184       2815103.3    
     87000   274.27298     -2535.2285     -2506.2569     -1865.7482     -2302.4112      2817662.7    
     88000   276.54696     -1967.9106     -2005.9754     -1191.6128     -1721.833       2820166      
     89000   277.32404     -1624.7901     -1556.2234     -695.44461     -1292.1527      2819755      
     90000   278.46899     -755.09605     -748.33754      415.97648     -362.4857       2808320.2    
     91000   278.86457      56.365994      139.00032      1461.3143      552.22687      2796217.2    
     92000   279.98789      130.44462      157.63499      1483.3303      590.46997      2785355.5    
     93000   278.83193     -246.71214     -184.53831      1077.7804      215.50999      2776629.1    
     94000   278.63876     -396.66176     -356.15848      858.89818      35.359312      2762025.4    
     95000   278.40545     -865.8343      -868.33151      169.82231     -521.44783      2757394.5    
     96000   277.06474     -1566.1126     -1624.5651     -628.62441     -1273.1007      2768295.9    
     97000   276.64835     -1621.7996     -1634.3838     -724.9108      -1327.0314      2772250.8    
     98000   276.93007     -1368.2083     -1352.5092     -402.79574     -1041.1711      2789290.1    
     99000   278.91934     -1282.2954     -1293.5159     -289.41769     -955.07633      2788789.2    
    100000   277.63629     -936.62556     -1044.4189      70.409004     -636.87848      2799362.6    
    101000   278.42109     -553.20143     -614.49514      574.07649     -197.87336      2798106      
    102000   278.11626     -517.84212     -505.5181       654.19326     -123.05565      2809877.3    
    103000   277.79872     -901.29303     -875.19164      166.16005     -536.77488      2798656.4    
    104000   277.65898     -1196.3603     -1148.231      -191.28165     -845.29098      2806963      
    105000   277.24431     -1378.0361     -1421.3255     -529.62257     -1109.6614      2808417.1    
    106000   277.01917     -1849.012      -1844.6156     -1013.6597     -1569.0958      2790874.3    
    107000   277.18002     -1934.2333     -1938.8762     -1120.3308     -1664.4801      2781048.7    
    108000   277.12702     -1444.6207     -1437.8006     -531.55293     -1137.9914      2783346      
    109000   278.06841     -970.43204     -1049.1065      20.307599     -666.41031      2776336.4    
    110000   278.10505     -586.21697     -627.62624      564.93432     -216.30296      2772153.7    
    111000   278.64884     -197.1705      -223.22668      1003.7246      194.44247      2770134      
    112000   279.74533      118.74002      100.00347      1391.1675      536.63699      2771628.3    
    113000   279.27316     -66.632048     -101.65185      1119.3594      317.02517      2768659.7    
    114000   278.96968     -525.84917     -536.18825      628.49924     -144.51272      2769682.1    
    115000   278.28776     -928.59478     -994.94093      164.60745     -586.30942      2784201.7    
    116000   277.86594     -1400.8319     -1394.3221     -498.78526     -1097.9798      2787104.3    
    117000   276.89246     -1852.9555     -1883.2294     -1046.8915     -1594.3588      2804537.3    
    118000   275.70932     -1853.389      -1882.381      -1094.1998     -1609.9899      2806751.6    
    119000   276.08564     -1699.1071     -1729.3775     -873.24278     -1433.9091      2803082.8    
    120000   276.6745      -1533.908      -1585.7431     -729.97243     -1283.2079      2805939.9    
    121000   277.93248     -1179.55       -1239.3677     -267.95305     -895.6236       2802627.3    
    122000   278.19976     -815.83574     -806.61396      230.33385     -464.03861      2795020.2    
    123000   278.42968     -509.20537     -500.37337      590.70239     -139.62545      2788744      
    124000   277.88814     -510.18306     -531.69531      600.02607     -147.2841       2781437.1    
    125000   278.83035     -461.54366     -422.59802      669.82408     -71.4392        2770669.8    
    126000   278.64006     -506.97298     -470.20475      669.1849      -102.66428      2771610.3    
    127000   277.64837     -727.40735     -783.42765      293.66688     -405.7227       2762960.6    
    128000   277.74559     -934.74315     -955.97495      28.26966      -620.81615      2770886.9    
    129000   278.40203     -959.58732     -969.90434     -4.6692937     -644.72032      2774664.5    
    130000   277.89428     -1148.5199     -1152.2288     -177.90339     -826.21735      2785870.8    
    131000   277.54956     -1258.0765     -1297.7855     -396.30181     -984.05459      2788610.3    
    132000   278.32092     -1239.9576     -1326.6903     -386.10335     -984.25042      2795314.9    
    133000   278.08499     -1105.0861     -1148.8187     -200.05154     -817.98546      2793401.7    
    134000   277.88618     -1107.666      -1213.6236     -158.60895     -826.63285      2794814.9    
    135000   278.08912     -1190.0731     -1200.1755     -262.40673     -884.21845      2800596.8    
    136000   278.60135     -1023.4409     -991.83015     -47.592608     -687.62121      2801110.6    
    137000   278.00601     -1048.1332     -1021.3269      32.17409      -679.09535      2794705      
    138000   277.41559     -1104.6236     -1123.8991     -97.136045     -775.21958      2785562.7    
    139000   278.28189     -907.62522     -959.00873      6.0892473     -620.18157      2791518.5    
    140000   277.90382     -956.88304     -966.63074     -57.04357      -660.18578      2784441      
    141000   277.88652     -907.30969     -891.76989      70.196061     -576.2945       2780337.4    
    142000   278.28032     -931.34651     -913.17034      80.075173     -588.14723      2773394.8    
    143000   278.18578     -735.80674     -752.22         259.86895     -409.38593      2772335.7    
    144000   278.44789     -751.0401      -748.95505      355.22595     -381.58973      2771634.2    
    145000   278.03289     -667.51089     -726.55653      393.66871     -333.46623      2768125      
    146000   278.30235     -658.02524     -662.22433      376.01446     -314.74504      2772982.7    
    147000   279.14754     -738.14712     -773.05918      291.12797     -406.69278      2781699.2    
    148000   277.55766     -876.47796     -1006.0213      113.75125     -589.58266      2792453      
    149000   278.23201     -1100.5282     -1165.1271     -226.66345     -830.77293      2795731.8    
    150000   278.21522     -1419.5808     -1453.5448     -538.92373     -1137.3498      2807884.9    
    150023   277.84894     -1429.6396     -1440.9175     -533.10161     -1134.5529      2807884.9    
Loop time of 196.162 on 1 procs for 100000 steps with 130899 atoms

Performance: 22.023 ns/day, 1.090 hours/ns, 509.784 timesteps/s, 66.730 Matom-step/s
97.2% CPU use with 1 MPI tasks x 1 OpenMP threads

MPI task timing breakdown:
Section |  min time  |  avg time  |  max time  |%varavg| %total
---------------------------------------------------------------
Pair    | 45.19      | 45.19      | 45.19      |   0.0 | 23.04
Neigh   | 0.97202    | 0.97202    | 0.97202    |   0.0 |  0.50
Comm    | 1.7267     | 1.7267     | 1.7267     |   0.0 |  0.88
Output  | 72.979     | 72.979     | 72.979     |   0.0 | 37.20
Modify  | 70.393     | 70.393     | 70.393     |   0.0 | 35.89
Other   |            | 4.9        |            |       |  2.50

Nlocal:         130899 ave      130899 max      130899 min
Histogram: 1 0 0 0 0 0 0 0 0 0
Nghost:          27098 ave       27098 max       27098 min
Histogram: 1 0 0 0 0 0 0 0 0 0
Neighs:              0 ave           0 max           0 min
Histogram: 1 0 0 0 0 0 0 0 0 0
FullNghs:  1.73687e+07 ave 1.73687e+07 max 1.73687e+07 min
Histogram: 1 0 0 0 0 0 0 0 0 0

Total # of neighbors = 17368654
Ave neighs/atom = 132.68745
Neighbor list builds = 960
Dangerous builds = 0
Total wall time: 0:04:48
