
Lmod is automatically replacing "gcc/12.3" with "intel/2023.2.1".


Due to MODULEPATH changes, the following have been reloaded:
  1) aocl-blas/5.1     2) aocl-lapack/5.1     3) flexiblas/3.3.1     4) openmpi/4.1.5

LAMMPS (22 Jul 2025 - Development - patch_22Jul2025-72-g8b7fdf9ad3)
KOKKOS mode with Kokkos version 4.6.2 is enabled
  will use up to 1 GPU(s) per node
  using 1 OpenMP thread(s) per MPI task
Reading data file ...
  orthogonal box = (0 0 0) to (162 162 150)
  1 by 1 by 1 MPI processor grid
  reading atoms ...
  130899 atoms
  read_data CPU = 0.901 seconds
128000 atoms in group substrate_group
2899 atoms in group particle_group
Reading eam/alloy potential file /home/wuwen123/comp/yao/lammps/potentials/AlCu.eam.alloy with DATE: 2008-10-01
Changing box ...
Switching to 'neigh_modify every 1 delay 0 check yes' setting during minimization
Neighbor list info ...
  update: every = 1 steps, delay = 0 steps, check = yes
  max neighbors/atom: 2000, page size: 100000
  master list distance cutoff = 8.1825
  ghost atom cutoff = 8.1825
  binsize = 8.1825, bins = 20 20 16
  1 neighbor lists, perpetual/occasional/extra = 1 0 0
  (1) pair eam/alloy/kk, perpetual
      attributes: full, newton off, kokkos_device
      pair build: full/bin/kk/device
      stencil: full/bin/3d
      bin: kk/device
Setting up cg/kk style minimization ...
  Unit style    : metal
  Current step  : 0
WARNING: Fix MINIMIZE/kk not compatible with sending data in Kokkos communication (src/KOKKOS/comm_kokkos.cpp:766)
WARNING: Fix with atom-based arrays not compatible with sending data in Kokkos communication, switching to classic exchange/border communication (src/KOKKOS/comm_kokkos.cpp:779)
WARNING: Fix MINIMIZE/kk not compatible with Kokkos sorting on device (src/KOKKOS/atom_kokkos.cpp:212)
WARNING: Fix with atom-based arrays not compatible with Kokkos sorting on device, switching to classic host sorting (src/KOKKOS/atom_kokkos.cpp:218)
Per MPI rank memory allocation (min/avg/max) = 40.44 | 40.44 | 40.44 Mbytes
   Step          Temp          E_pair         E_mol          TotEng         Press          Volume    
         0   0             -432603.64      0             -432603.64     -1585.2738      3435667.6    
        23   0             -432625.91      0             -432625.91     -858.13137      3435667.6    
Loop time of 2.891 on 1 procs for 23 steps with 130899 atoms

5.6% CPU use with 1 MPI tasks x 1 OpenMP threads

Minimization stats:
  Stopping criterion = linesearch alpha is zero
  Energy initial, next-to-last, final = 
     -432603.639260474  -432625.907008582  -432625.907008582
  Force two-norm initial, final = 14.124092 0.13113456
  Force max component initial, final = 0.37864385 0.0035973836
  Final line search alpha, max atom move = 4.7683716e-07 1.7153662e-09
  Iterations, force evaluations = 23 87

MPI task timing breakdown:
Section |  min time  |  avg time  |  max time  |%varavg| %total
---------------------------------------------------------------
Pair    | 0.072193   | 0.072193   | 0.072193   |   0.0 |  2.50
Neigh   | 0          | 0          | 0          |   0.0 |  0.00
Comm    | 0.88985    | 0.88985    | 0.88985    |   0.0 | 30.78
Output  | 0          | 0          | 0          |   0.0 |  0.00
Modify  | 0          | 0          | 0          |   0.0 |  0.00
Other   |            | 1.929      |            |       | 66.72

Nlocal:         130899 ave      130899 max      130899 min
Histogram: 1 0 0 0 0 0 0 0 0 0
Nghost:          30420 ave       30420 max       30420 min
Histogram: 1 0 0 0 0 0 0 0 0 0
Neighs:              0 ave           0 max           0 min
Histogram: 1 0 0 0 0 0 0 0 0 0
FullNghs:  1.76884e+07 ave 1.76884e+07 max 1.76884e+07 min
Histogram: 1 0 0 0 0 0 0 0 0 0

Total # of neighbors = 17688438
Ave neighs/atom = 135.13043
Neighbor list builds = 0
Dangerous builds = 0
System init for write_data ...
Setting up Verlet run ...
  Unit style    : metal
  Current step  : 23
  Time step     : 0.0005
Per MPI rank memory allocation (min/avg/max) = 43.29 | 43.29 | 43.29 Mbytes
   Step          Temp           Pxx            Pyy            Pzz           Press          Volume    
        23   300            344.26938      349.53307      1468.2704      720.69093      3432091.6    
      1000   152.73784      3.8037777      8.5367279      1214.6831      409.00786      3472985.7    
      2000   157.41333      0.86745238    -6.2757159      495.94152      163.51108      3469247.8    
      3000   161.65706      4.8440161     -4.2534202     -677.15806     -225.52249      3456927      
      4000   165.59053      0.09953105    -0.28947732    -1351.4767     -450.55555      3453516.9    
      5000   169.57915      13.241265     -9.5279929     -1695.1275     -563.80475      3444342.9    
      6000   175.40673      1.1027414      5.996093      -1067.9709     -353.62401      3453308.7    
      7000   181.32709      5.3603089     -4.5258672     -215.40603     -71.523864      3468750.6    
      8000   185.90803     -4.9366333      16.622569      850.72588      287.47061      3480367.9    
      9000   190.47417     -10.305206      7.1150767      1348.556       448.45529      3494912.1    
     10000   195.9123       3.8917685      2.719754       1563.8894      523.50032      3494960.4    
     11000   200.64131     -1.225286       4.3600979      1047.3844      350.17308      3489755.4    
     12000   205.61584     -0.72608019    -8.8176016      191.52252      60.659612      3477741.6    
     13000   210.00923     -7.2151095      3.6019689     -936.08581     -313.23298      3464407.9    
     14000   213.70994      4.464743      -1.2793531     -1622.7682     -539.86092      3461599.2    
     15000   217.76745      5.8811772     -2.211041      -1748.8423     -581.72405      3466899.4    
     16000   223.24467     -1.3957833      4.7406023     -946.64371     -314.43296      3474140      
     17000   228.56894      11.560861      0.27418043     123.69933      45.178125      3485926.4    
     18000   233.15706     -7.1136102      7.6173012      1120.9575      373.8204       3502284.1    
     19000   236.46018      6.7020907     -14.435613      1577.5296      523.26537      3515416.8    
     20000   240.19604     -6.5577042      3.9355096      1536.8784      511.41873      3509084.3    
     21000   246.04285     -3.6453331      11.139907      820.76019      276.08492      3503197.2    
     22000   249.28179      7.7689012     -11.909815     -163.20605     -55.782321      3491782.8    
     23000   252.08707     -8.2510533     -2.1325045     -1218.3684     -409.584        3486743.9    
     24000   254.29674     -6.7567788      0.98346952    -1661.8842     -555.88585      3473168.2    
     25000   258.47016      5.5697568      4.914607      -1484.8169     -491.44419      3479521.3    
     26000   262.64623      27.400319     -5.0772891     -691.96084     -223.2126       3482750.6    
     27000   266.48302      11.377536      2.8138989      336.25207      116.8145       3499355.3    
     28000   269.56218     -3.0664486      8.8744012      1114.5064      373.43812      3524753.6    
     29000   271.97118     -6.8607559      11.038827      1489.4614      497.87983      3524954.7    
     30000   274.78917      2.34182        1.6101731      1351.6911      451.88104      3531337.3    
     31000   276.9133      -4.4046249     -1.5762416      764.84914      252.95609      3511228.3    
     32000   278.94975     -11.421333      11.551184     -211.445       -70.438385      3495566.7    
     33000   281.12789     -2.1847055     -12.0278       -1069.6948     -361.30242      3493018.5    
     34000   282.66205      5.9957709      3.1719467     -1627.4078     -539.41337      3482061.5    
     35000   284.83175     -8.4703627      14.21543      -1370.9379     -455.06428      3491167.9    
     36000   287.37869      1.4103222     -0.45495575    -707.26505     -235.43656      3508962.8    
     37000   289.71012     -10.137536      14.662746      354.44921      119.65814      3514170.7    
     38000   291.24068      5.1074128     -0.71228776     1066.3059      356.90035      3526441.1    
     39000   290.82097     -15.449133      6.2297336      1450.8948      480.55845      3527955.7    
     40000   292.76449     -13.822251     -2.5625851      1218.3123      400.64248      3530417.3    
     41000   294.98554      24.667244     -36.829413      685.16873      224.33552      3521097.7    
     42000   294.60226      8.9012355     -20.427783     -250.39595     -87.307498      3509151.3    
     43000   295.51004      4.5268994      2.0142107     -929.79027     -307.74972      3501165.8    
     44000   295.80742     -6.3736851      5.6238639     -1514.8077     -505.18583      3490149.1    
     45000   296.34687     -11.843594      19.594916     -1235.6393     -409.29599      3494514.4    
     46000   297.97977      8.2329123     -1.7609201     -660.43979     -217.98927      3510554.7    
     47000   299.31976      14.568366     -11.601802      278.06665      93.677736      3516968.9    
     48000   299.42799      7.7187841     -11.025204      852.63777      283.11045      3527042.5    
     49000   299.87254      19.708037     -1.1235813      1335.9635      451.51597      3537844.5    
     50000   299.13485     -19.041927      3.8391938      1121.2882      368.69517      3537451.8    
     50023   299.58724     -3.4815397     -0.74205826     1120.3792      372.05187      3537179.7    
Loop time of 81.2406 on 1 procs for 50000 steps with 130899 atoms

Performance: 26.588 ns/day, 0.903 hours/ns, 615.456 timesteps/s, 80.563 Matom-step/s
98.5% CPU use with 1 MPI tasks x 1 OpenMP threads

MPI task timing breakdown:
Section |  min time  |  avg time  |  max time  |%varavg| %total
---------------------------------------------------------------
Pair    | 56.482     | 56.482     | 56.482     |   0.0 | 69.52
Neigh   | 0.42673    | 0.42673    | 0.42673    |   0.0 |  0.53
Comm    | 0.85584    | 0.85584    | 0.85584    |   0.0 |  1.05
Output  | 8.5414     | 8.5414     | 8.5414     |   0.0 | 10.51
Modify  | 12.287     | 12.287     | 12.287     |   0.0 | 15.12
Other   |            | 2.647      |            |       |  3.26

Nlocal:         130899 ave      130899 max      130899 min
Histogram: 1 0 0 0 0 0 0 0 0 0
Nghost:          27136 ave       27136 max       27136 min
Histogram: 1 0 0 0 0 0 0 0 0 0
Neighs:              0 ave           0 max           0 min
Histogram: 1 0 0 0 0 0 0 0 0 0
FullNghs:  1.73383e+07 ave 1.73383e+07 max 1.73383e+07 min
Histogram: 1 0 0 0 0 0 0 0 0 0

Total # of neighbors = 17338296
Ave neighs/atom = 132.45553
Neighbor list builds = 423
Dangerous builds = 0
WARNING: Detected non-ASCII characters in input. Will try to continue by replacing with ASCII equivalents where known. (src/input.cpp:478)
15522 atoms in group frozen_atoms
WARNING: No fixes with time integration, atoms won't move
For more information see https://docs.lammps.org/err0028 (src/verlet.cpp:60)
Setting up Verlet run ...
  Unit style    : metal
  Current step  : 50023
  Time step     : 0.0005
Per MPI rank memory allocation (min/avg/max) = 43.08 | 43.08 | 43.08 Mbytes
   Step          Temp           Pxx            Pyy            Pzz           Press          Volume    
     50023   278.17726     -181.0265      -180.86611      1150.8999      263.00244      3532604.9    
     51000   278.17726     -181.0265      -180.86611      1150.8999      263.00244      3532604.9    
     52000   278.17726     -181.0265      -180.86611      1150.8999      263.00244      3532604.9    
     53000   278.17726     -181.0265      -180.86611      1150.8999      263.00244      3532604.9    
     54000   278.17726     -181.0265      -180.86611      1150.8999      263.00244      3532604.9    
     55000   278.17726     -181.0265      -180.86611      1150.8999      263.00244      3532604.9    
     56000   278.17726     -181.0265      -180.86611      1150.8999      263.00244      3532604.9    
     57000   278.17726     -181.0265      -180.86611      1150.8999      263.00244      3532604.9    
     58000   278.17726     -181.0265      -180.86611      1150.8999      263.00244      3532604.9    
     59000   278.17726     -181.0265      -180.86611      1150.8999      263.00244      3532604.9    
     60000   278.17726     -181.0265      -180.86611      1150.8999      263.00244      3532604.9    
     61000   278.17726     -181.0265      -180.86611      1150.8999      263.00244      3532604.9    
     62000   278.17726     -181.0265      -180.86611      1150.8999      263.00244      3532604.9    
     63000   278.17726     -181.0265      -180.86611      1150.8999      263.00244      3532604.9    
     64000   278.17726     -181.0265      -180.86611      1150.8999      263.00244      3532604.9    
     65000   278.17726     -181.0265      -180.86611      1150.8999      263.00244      3532604.9    
     66000   278.17726     -181.0265      -180.86611      1150.8999      263.00244      3532604.9    
     67000   278.17726     -181.0265      -180.86611      1150.8999      263.00244      3532604.9    
     68000   278.17726     -181.0265      -180.86611      1150.8999      263.00244      3532604.9    
     69000   278.17726     -181.0265      -180.86611      1150.8999      263.00244      3532604.9    
     70000   278.17726     -181.0265      -180.86611      1150.8999      263.00244      3532604.9    
     71000   278.17726     -181.0265      -180.86611      1150.8999      263.00244      3532604.9    
     72000   278.17726     -181.0265      -180.86611      1150.8999      263.00244      3532604.9    
     73000   278.17726     -181.0265      -180.86611      1150.8999      263.00244      3532604.9    
     74000   278.17726     -181.0265      -180.86611      1150.8999      263.00244      3532604.9    
     75000   278.17726     -181.0265      -180.86611      1150.8999      263.00244      3532604.9    
     76000   278.17726     -181.0265      -180.86611      1150.8999      263.00244      3532604.9    
     77000   278.17726     -181.0265      -180.86611      1150.8999      263.00244      3532604.9    
     78000   278.17726     -181.0265      -180.86611      1150.8999      263.00244      3532604.9    
     79000   278.17726     -181.0265      -180.86611      1150.8999      263.00244      3532604.9    
     80000   278.17726     -181.0265      -180.86611      1150.8999      263.00244      3532604.9    
     81000   278.17726     -181.0265      -180.86611      1150.8999      263.00244      3532604.9    
     82000   278.17726     -181.0265      -180.86611      1150.8999      263.00244      3532604.9    
     83000   278.17726     -181.0265      -180.86611      1150.8999      263.00244      3532604.9    
     84000   278.17726     -181.0265      -180.86611      1150.8999      263.00244      3532604.9    
     85000   278.17726     -181.0265      -180.86611      1150.8999      263.00244      3532604.9    
     86000   278.17726     -181.0265      -180.86611      1150.8999      263.00244      3532604.9    
     87000   278.17726     -181.0265      -180.86611      1150.8999      263.00244      3532604.9    
     88000   278.17726     -181.0265      -180.86611      1150.8999      263.00244      3532604.9    
     89000   278.17726     -181.0265      -180.86611      1150.8999      263.00244      3532604.9    
     90000   278.17726     -181.0265      -180.86611      1150.8999      263.00244      3532604.9    
     91000   278.17726     -181.0265      -180.86611      1150.8999      263.00244      3532604.9    
     92000   278.17726     -181.0265      -180.86611      1150.8999      263.00244      3532604.9    
     93000   278.17726     -181.0265      -180.86611      1150.8999      263.00244      3532604.9    
     94000   278.17726     -181.0265      -180.86611      1150.8999      263.00244      3532604.9    
     95000   278.17726     -181.0265      -180.86611      1150.8999      263.00244      3532604.9    
     96000   278.17726     -181.0265      -180.86611      1150.8999      263.00244      3532604.9    
     97000   278.17726     -181.0265      -180.86611      1150.8999      263.00244      3532604.9    
     98000   278.17726     -181.0265      -180.86611      1150.8999      263.00244      3532604.9    
     99000   278.17726     -181.0265      -180.86611      1150.8999      263.00244      3532604.9    
    100000   278.17726     -181.0265      -180.86611      1150.8999      263.00244      3532604.9    
    101000   278.17726     -181.0265      -180.86611      1150.8999      263.00244      3532604.9    
    102000   278.17726     -181.0265      -180.86611      1150.8999      263.00244      3532604.9    
    103000   278.17726     -181.0265      -180.86611      1150.8999      263.00244      3532604.9    
    104000   278.17726     -181.0265      -180.86611      1150.8999      263.00244      3532604.9    
    105000   278.17726     -181.0265      -180.86611      1150.8999      263.00244      3532604.9    
    106000   278.17726     -181.0265      -180.86611      1150.8999      263.00244      3532604.9    
    107000   278.17726     -181.0265      -180.86611      1150.8999      263.00244      3532604.9    
    108000   278.17726     -181.0265      -180.86611      1150.8999      263.00244      3532604.9    
    109000   278.17726     -181.0265      -180.86611      1150.8999      263.00244      3532604.9    
    110000   278.17726     -181.0265      -180.86611      1150.8999      263.00244      3532604.9    
    111000   278.17726     -181.0265      -180.86611      1150.8999      263.00244      3532604.9    
    112000   278.17726     -181.0265      -180.86611      1150.8999      263.00244      3532604.9    
    113000   278.17726     -181.0265      -180.86611      1150.8999      263.00244      3532604.9    
    114000   278.17726     -181.0265      -180.86611      1150.8999      263.00244      3532604.9    
    115000   278.17726     -181.0265      -180.86611      1150.8999      263.00244      3532604.9    
    116000   278.17726     -181.0265      -180.86611      1150.8999      263.00244      3532604.9    
    117000   278.17726     -181.0265      -180.86611      1150.8999      263.00244      3532604.9    
    118000   278.17726     -181.0265      -180.86611      1150.8999      263.00244      3532604.9    
    119000   278.17726     -181.0265      -180.86611      1150.8999      263.00244      3532604.9    
    120000   278.17726     -181.0265      -180.86611      1150.8999      263.00244      3532604.9    
    121000   278.17726     -181.0265      -180.86611      1150.8999      263.00244      3532604.9    
    122000   278.17726     -181.0265      -180.86611      1150.8999      263.00244      3532604.9    
    123000   278.17726     -181.0265      -180.86611      1150.8999      263.00244      3532604.9    
    124000   278.17726     -181.0265      -180.86611      1150.8999      263.00244      3532604.9    
    125000   278.17726     -181.0265      -180.86611      1150.8999      263.00244      3532604.9    
    126000   278.17726     -181.0265      -180.86611      1150.8999      263.00244      3532604.9    
    127000   278.17726     -181.0265      -180.86611      1150.8999      263.00244      3532604.9    
    128000   278.17726     -181.0265      -180.86611      1150.8999      263.00244      3532604.9    
    129000   278.17726     -181.0265      -180.86611      1150.8999      263.00244      3532604.9    
    130000   278.17726     -181.0265      -180.86611      1150.8999      263.00244      3532604.9    
    131000   278.17726     -181.0265      -180.86611      1150.8999      263.00244      3532604.9    
    132000   278.17726     -181.0265      -180.86611      1150.8999      263.00244      3532604.9    
    133000   278.17726     -181.0265      -180.86611      1150.8999      263.00244      3532604.9    
    134000   278.17726     -181.0265      -180.86611      1150.8999      263.00244      3532604.9    
    135000   278.17726     -181.0265      -180.86611      1150.8999      263.00244      3532604.9    
    136000   278.17726     -181.0265      -180.86611      1150.8999      263.00244      3532604.9    
    137000   278.17726     -181.0265      -180.86611      1150.8999      263.00244      3532604.9    
    138000   278.17726     -181.0265      -180.86611      1150.8999      263.00244      3532604.9    
    139000   278.17726     -181.0265      -180.86611      1150.8999      263.00244      3532604.9    
    140000   278.17726     -181.0265      -180.86611      1150.8999      263.00244      3532604.9    
    141000   278.17726     -181.0265      -180.86611      1150.8999      263.00244      3532604.9    
    142000   278.17726     -181.0265      -180.86611      1150.8999      263.00244      3532604.9    
    143000   278.17726     -181.0265      -180.86611      1150.8999      263.00244      3532604.9    
    144000   278.17726     -181.0265      -180.86611      1150.8999      263.00244      3532604.9    
    145000   278.17726     -181.0265      -180.86611      1150.8999      263.00244      3532604.9    
    146000   278.17726     -181.0265      -180.86611      1150.8999      263.00244      3532604.9    
    147000   278.17726     -181.0265      -180.86611      1150.8999      263.00244      3532604.9    
    148000   278.17726     -181.0265      -180.86611      1150.8999      263.00244      3532604.9    
    149000   278.17726     -181.0265      -180.86611      1150.8999      263.00244      3532604.9    
    150000   278.17726     -181.0265      -180.86611      1150.8999      263.00244      3532604.9    
    150023   278.17726     -181.0265      -180.86611      1150.8999      263.00244      3532604.9    
Loop time of 182.172 on 1 procs for 100000 steps with 130899 atoms

Performance: 23.714 ns/day, 1.012 hours/ns, 548.933 timesteps/s, 71.855 Matom-step/s
97.1% CPU use with 1 MPI tasks x 1 OpenMP threads

MPI task timing breakdown:
Section |  min time  |  avg time  |  max time  |%varavg| %total
---------------------------------------------------------------
Pair    | 42.565     | 42.565     | 42.565     |   0.0 | 23.37
Neigh   | 0          | 0          | 0          |   0.0 |  0.00
Comm    | 0.30942    | 0.30942    | 0.30942    |   0.0 |  0.17
Output  | 72.63      | 72.63      | 72.63      |   0.0 | 39.87
Modify  | 63.442     | 63.442     | 63.442     |   0.0 | 34.83
Other   |            | 3.226      |            |       |  1.77

Nlocal:         130899 ave      130899 max      130899 min
Histogram: 1 0 0 0 0 0 0 0 0 0
Nghost:          27172 ave       27172 max       27172 min
Histogram: 1 0 0 0 0 0 0 0 0 0
Neighs:              0 ave           0 max           0 min
Histogram: 1 0 0 0 0 0 0 0 0 0
FullNghs:  1.73382e+07 ave 1.73382e+07 max 1.73382e+07 min
Histogram: 1 0 0 0 0 0 0 0 0 0

Total # of neighbors = 17338218
Ave neighs/atom = 132.45493
Neighbor list builds = 0
Dangerous builds = 0
Total wall time: 0:04:51
